 vasp.5.3.3 18Dez12 (build May 12 2016 12:04:25) complex

 executed on             LinuxIFC date 2017.03.09  11:47:46

 INCAR:
 POTCAR:    PAW_PBE Mn 06Sep2000
 POTCAR:    PAW_PBE O 08Apr2002
 POTCAR:    PAW_PBE Li 17Jan2003
 POTCAR:    PAW_PBE Mn 06Sep2000

 POTCAR:    PAW_PBE O 08Apr2002

 POTCAR:    PAW_PBE Li 17Jan2003

  PAW_PBE Mn 06Sep2000                  :
  PAW_PBE O 08Apr2002                   :
  PAW_PBE Li 17Jan2003                  :

 POSCAR:
  positions in direct lattice
  velocities in cartesian coordinates
 exchange correlation table for  LEXCH =        8
   RHO(1)=    0.500       N(1)  =     2000
   RHO(2)=  100.500       N(2)  =     4000

 ion  position               nearest neighbor table
   1  0.250  0.002  0.137-  16 1.92  16 1.92  23 1.97  23 1.97  20 2.25   9 2.38  25 2.54   6 3.16
                             6 3.16
   2  0.250  0.525  0.135-  24 1.92  24 1.92  15 1.96  15 1.96  10 2.16  19 2.30  25 3.07
   3  0.250  0.233  0.617-  11 1.91  13 1.92  13 1.92  17 1.96  21 1.98  21 1.98  27 2.88  27 2.88
                             7 3.01   7 3.01  28 3.24  28 3.24
   4  0.250  0.725  0.628-  12 1.90  14 1.92  14 1.92  22 1.96  22 1.96  18 1.97  28 2.96  28 2.96
                             8 3.01   8 3.01  27 3.21  27 3.21
   5  0.750  0.479  0.851-  19 1.92  19 1.92  12 1.97  12 1.97  13 2.25  24 2.29  26 3.07  27 3.10

   6  0.750  0.002  0.849-  11 1.94  11 1.94  20 1.96  20 1.96  23 2.22  14 2.41  26 2.53  28 3.08
                             1 3.16   1 3.16
   7  0.750  0.276  0.348-  15 1.89   9 1.89   9 1.89  21 1.99  17 2.01  17 2.01  27 2.74   3 3.01
                             3 3.01
   8  0.750  0.765  0.358-  10 1.90  10 1.90  16 1.90  22 1.97  18 2.05  18 2.05  28 2.78   4 3.01
                             4 3.01
   9  0.250  0.192  0.264-   7 1.89   7 1.89  25 2.09   1 2.38
  10  0.250  0.676  0.280-   8 1.90   8 1.90   2 2.16
  11  0.250  0.088  0.749-   3 1.91   6 1.94   6 1.94
  12  0.250  0.580  0.759-   4 1.90   5 1.97   5 1.97
  13  0.750  0.327  0.693-   3 1.92   3 1.92  27 2.04   5 2.25
  14  0.750  0.816  0.709-   4 1.92   4 1.92  28 2.20  26 2.21   6 2.41
  15  0.750  0.420  0.219-   7 1.89   2 1.96   2 1.96
  16  0.750  0.908  0.227-   8 1.90   1 1.92   1 1.92
  17  0.250  0.358  0.457-   3 1.96  27 2.00  27 2.00   7 2.01   7 2.01
  18  0.250  0.851  0.469-   4 1.97  28 2.01  28 2.01   8 2.05   8 2.05
  19  0.250  0.396  0.950-  25 1.84   5 1.92   5 1.92   2 2.30
  20  0.250  0.900  0.939-   6 1.96   6 1.96  26 2.03  26 2.03   1 2.25
  21  0.750  0.152  0.513-  28 1.92   3 1.98   3 1.98   7 1.99
  22  0.750  0.646  0.525-  27 1.85   4 1.96   4 1.96   8 1.97
  23  0.750  0.103  0.045-   1 1.97   1 1.97  25 2.04  25 2.04   6 2.22
  24  0.750  0.607  0.034-  26 1.84   2 1.92   2 1.92   5 2.29
  25  0.250  0.241  0.053-  19 1.84  23 2.04  23 2.04   9 2.09   1 2.54   2 3.07
  26  0.750  0.763  0.931-  24 1.84  20 2.03  20 2.03  14 2.21   6 2.53   5 3.07
  27  0.750  0.466  0.534-  22 1.85  17 2.00  17 2.00  13 2.04   7 2.74   3 2.88   3 2.88   5 3.10
                             4 3.21   4 3.21
  28  0.750  0.966  0.538-  21 1.92  18 2.01  18 2.01  14 2.20   8 2.78   4 2.96   4 2.96   6 3.08
                             3 3.24   3 3.24

  LATTYP: Found a simple monoclinic cell.
 ALAT       =    14.5773650108
 B/A-ratio  =     0.1993174909
 C/A-ratio  =     1.5955025466
 COS(beta)  =    -0.9554966738

  Lattice vectors:

 A1 = ( -10.0417276160,   0.0000000000, -10.5670846094)
 A2 = (   0.0000000000,  -2.9055238181,   0.0000000000)
 A3 = (  10.3349117196,   0.0000000000,  20.8358953909)

Analysis of symmetry for initial positions (statically):
 Subroutine PRICEL returns:
 Original cell was already a primitive cell.

 Routine SETGRP: Setting up the symmetry group for a
 simple monoclinic supercell.

 Subroutine GETGRP returns: Found  2 space group operations
 (whereof  1 operations were pure point group operations)
 out of a pool of  4 trial point group operations.

The static configuration has the point symmetry C_1 .
 The point group associated with its full space group is C_1h.

Analysis of symmetry for dynamics (positions and initial velocities):
 Subroutine PRICEL returns:
 Original cell was already a primitive cell.

 Routine SETGRP: Setting up the symmetry group for a
 simple monoclinic supercell.

 Subroutine GETGRP returns: Found  2 space group operations
 (whereof  1 operations were pure point group operations)
 out of a pool of  4 trial point group operations.

The dynamic configuration has the point symmetry C_1 .
 The point group associated with its full space group is C_1h.

Analysis of magnetic symmetry:

 Subroutine MAGSYM returns: Found  2 space group operations
 (whereof  1 operations were pure point group operations)
 out of a pool of  2 trial space group operations
 (whereof  1 operations were pure point group operations)
 and found also     1 'primitive' translations

The magnetic configuration has the point symmetry C_1 .
 The point group associated with its full space group is C_1h.

 irot  :   1
 isymop:   1   0   0
           0   1   0
           0   0   1

 gtrans:     0.0000000     0.0000000     0.0000000

 ptrans:     0.0000000     0.0000000     0.0000000
 rotmap:
 (   1->   1)  (   2->   2)  (   3->   3)  (   4->   4)  (   5->   5)
 (   6->   6)  (   7->   7)  (   8->   8)  (   9->   9)  (  10->  10)
 (  11->  11)  (  12->  12)  (  13->  13)  (  14->  14)  (  15->  15)
 (  16->  16)  (  17->  17)  (  18->  18)  (  19->  19)  (  20->  20)
 (  21->  21)  (  22->  22)  (  23->  23)  (  24->  24)  (  25->  25)
 (  26->  26)  (  27->  27)  (  28->  28)

 irot  :   2
 isymop:  -1   0   0
           0   1   0
           0   0   1

 gtrans:    -0.5000000     0.0000000     0.0000000

 ptrans:     0.0000000     0.0000000     0.0000000
 rotmap:
 (   1->   1)  (   2->   2)  (   3->   3)  (   4->   4)  (   5->   5)
 (   6->   6)  (   7->   7)  (   8->   8)  (   9->   9)  (  10->  10)
 (  11->  11)  (  12->  12)  (  13->  13)  (  14->  14)  (  15->  15)
 (  16->  16)  (  17->  17)  (  18->  18)  (  19->  19)  (  20->  20)
 (  21->  21)  (  22->  22)  (  23->  23)  (  24->  24)  (  25->  25)
 (  26->  26)  (  27->  27)  (  28->  28)

 KPOINTS: con1.16

Automatic generation of k-mesh.
Space group operators:
 irot       det(A)        alpha          n_x          n_y          n_z        tau_x        tau_y        tau_z
    1     1.000000     0.000000     1.000000     0.000000     0.000000     0.000000     0.000000     0.000000
    2    -1.000000   180.000000     0.000000     1.000000     0.000000    -0.500000     0.000000     0.000000

 Subroutine IBZKPT returns following result:

 Found     16 irreducible k-points:

 Following reciprocal coordinates:
            Coordinates               Weight
  0.000000  0.000000  0.000000      1.000000
  0.142857  0.000000  0.000000      2.000000
  0.285714  0.000000  0.000000      2.000000
  0.428571  0.000000  0.000000      2.000000
  0.000000  0.500000 -0.000000      1.000000
  0.142857  0.500000 -0.000000      2.000000
  0.285714  0.500000 -0.000000      2.000000
  0.428571  0.500000 -0.000000      2.000000
  0.000000  0.000000  0.500000      1.000000
  0.142857  0.000000  0.500000      2.000000
  0.285714  0.000000  0.500000      2.000000
  0.428571  0.000000  0.500000      2.000000
  0.000000  0.500000  0.500000      1.000000
  0.142857  0.500000  0.500000      2.000000
  0.285714  0.500000  0.500000      2.000000
  0.428571  0.500000  0.500000      2.000000

 Following cartesian coordinates:
            Coordinates               Weight
  0.000000  0.000000  0.000000      1.000000
  0.000000  0.049167  0.000000      2.000000
  0.000000  0.098335  0.000000      2.000000
  0.000000  0.147502  0.000000      2.000000
 -0.001491  0.000000  0.048734      1.000000
 -0.001491  0.049167  0.048734      2.000000
 -0.001491  0.098335  0.048734      2.000000
 -0.001491  0.147502  0.048734      2.000000
  0.051335  0.000000 -0.001466      1.000000
  0.051335  0.049167 -0.001466      2.000000
  0.051335  0.098335 -0.001466      2.000000
  0.051335  0.147502 -0.001466      2.000000
  0.049843  0.000000  0.047268      1.000000
  0.049843  0.049167  0.047268      2.000000
  0.049843  0.098335  0.047268      2.000000
  0.049843  0.147502  0.047268      2.000000

 TETIRR: Found     84 inequivalent tetrahedra from      168

 I would recommend the setting:
   dimension x,y,z NGX =    16 NGY =   57 NGZ =   54
 SYSTEM =  unknown system
 POSCAR =

 Startparameter for this run:
   NWRITE =      1    write-flag & timer
   PREC   = normal    normal or accurate (medium, high low for compatibility)
   ISTART =      1    job   : 0-new  1-cont  2-samecut
   ICHARG =     11    charge: 1-file 2-atom 10-const
   ISPIN  =      2    spin polarized calculation?
   LNONCOLLINEAR =      F non collinear calculations
   LSORBIT =      F    spin-orbit coupling
   INIWAV =      1    electr: 0-lowe 1-rand  2-diag
   LASPH  =      F    aspherical Exc in radial PAW
   METAGGA=      F    non-selfconsistent MetaGGA calc.

 Electronic Relaxation 1
   ENCUT  =  520.0 eV  38.22 Ry    6.18 a.u.   5.40 19.10 18.13*2*pi/ulx,y,z
   ENINI  =  520.0     initial cutoff
   ENAUG  =  605.4 eV  augmentation charge cutoff
   NELM   =     60;   NELMIN=  5; NELMDL=  0     # of ELM steps
   EDIFF  = 0.1E-04   stopping-criterion for ELM
   LREAL  =      F    real-space projection
   NLSPLINE    = F    spline interpolate recip. space projectors
   LCOMPAT=      F    compatible to vasp.4.4
   GGA_COMPAT  = T    GGA compatible to vasp.4.4-vasp.4.6
   LMAXPAW     = -100 max onsite density
   LMAXMIX     =    4 max onsite mixed and CHGCAR
   VOSKOWN=      1    Vosko Wilk Nusair interpolation
   ROPT   =    0.00000   0.00000   0.00000
 Ionic relaxation
   EDIFFG = -.2E-01   stopping-criterion for IOM
   NSW    =      0    number of steps for IOM
   NBLOCK =      1;   KBLOCK =      1    inner block; outer block
   IBRION =     -1    ionic relax: 0-MD 1-quasi-New 2-CG
   NFREE  =      0    steps in history (QN), initial steepest desc. (CG)
   ISIF   =      2    stress and relaxation
   IWAVPR =     10    prediction:  0-non 1-charg 2-wave 3-comb
   ISYM   =      2    0-nonsym 1-usesym 2-fastsym
   LCORR  =      T    Harris-Foulkes like correction to forces

   POTIM  = 0.5000    time-step for ionic-motion
   TEIN   =    0.0    initial temperature
   TEBEG  =    0.0;   TEEND  =   0.0 temperature during run
   SMASS  =  -3.00    Nose mass-parameter (am)
   estimated Nose-frequenzy (Omega)   =  0.10E-29 period in steps =****** mass=  -0.193E-27a.u.
   SCALEE = 1.0000    scale energy and forces
   NPACO  =    256;   APACO  = 16.0  distance and # of slots for P.C.
   PSTRESS=    0.0 pullay stress

  Mass of Ions in am
   POMASS =  54.94 16.00  7.01
  Ionic Valenz
   ZVAL   =   7.00  6.00  1.00
  Atomic Wigner-Seitz radii
  virtual crystal weights
   VCA    =   1.00  1.00  1.00
   NELECT =     156.0000    total number of electrons
   NUPDOWN=      -1.0000    fix difference up-down

 DOS related values:
   EMIN   =  10.00;   EMAX   =-10.00  energy-range for DOS
   EFERMI =   0.00
   ISMEAR =    -5;   SIGMA  =   0.20  broadening in eV -4-tet -1-fermi 0-gaus

[...]

 E-fermi :   2.6603     XC(G=0): -10.5646     alpha+bet :-10.7995

 spin component 1

 k-point   1 :       0.0000    0.0000    0.0000
  band No.  band energies     occupation
      1     -16.4205      1.00000
      2     -16.3575      1.00000
      3     -15.5475      1.00000
      4     -15.5287      1.00000
      5     -15.3663      1.00000
      6     -15.2694      1.00000
      7     -15.1537      1.00000
      8     -15.0632      1.00000
      9     -14.9590      1.00000
     10     -14.7997      1.00000
     11     -14.7073      1.00000
     12     -14.6373      1.00000
     13     -14.5231      1.00000
     14     -14.3118      1.00000
     15     -14.2005      1.00000
     16     -14.0884      1.00000
     17      -4.4590      1.00000
     18      -4.2172      1.00000
     19      -4.0692      1.00000
     20      -3.8883      1.00000
     21      -3.7388      1.00000
     22      -3.3273      1.00000
     23      -3.1414      1.00000
     24      -2.9874      1.00000
     25      -2.8986      1.00000
     26      -2.8578      1.00000
     27      -2.6805      1.00000
     28      -2.5941      1.00000
     29      -2.5086      1.00000
     30      -2.3194      1.00000
     31      -2.2854      1.00000
     32      -2.1943      1.00000
     33      -2.1403      1.00000
     34      -2.0452      1.00000
     35      -1.9179      1.00000
     36      -1.9153      1.00000
     37      -1.6797      1.00000
     38      -1.5078      1.00000
     39      -1.4707      1.00000
     40      -1.3184      1.00000
     41      -1.1876      1.00000
     42      -1.1810      1.00000
     43      -0.9939      1.00000
     44      -0.8844      1.00000
     45      -0.8011      1.00000
     46      -0.7534      1.00000
     47      -0.7194      1.00000
     48      -0.6953      1.00000
     49      -0.5542      1.00000
     50      -0.4514      1.00000
     51      -0.3699      1.00000
     52      -0.3303      1.00000
     53      -0.1422      1.00000
     54      -0.1370      1.00000
     55      -0.1190      1.00000
     56       0.0030      1.00000
     57       0.1901      1.00000
     58       0.2233      1.00000
     59       0.4218      1.00000
     60       0.4584      1.00000
[...]
     82       4.4346      0.00000
     83       4.6302      0.00000
     84       4.8322      0.00000
     85       4.8594      0.00000
     86       5.0727      0.00000
     87       5.7315      0.00000
     88       5.7904      0.00000
     89       5.8384      0.00000
     90       5.8755      0.00000
     91       5.9724      0.00000
     92       6.0579      0.00000
     93       6.1619      0.00000
     94       6.3910      0.00000
     95       6.4301      0.00000
     96       6.5069      0.00000

[...]

 spin component 2

[...]

 k-point  16 :       0.4286    0.5000    0.5000
  band No.  band energies     occupation
      1     -15.5986      1.00000
      2     -15.3902      1.00000
      3     -15.2407      1.00000
      4     -15.0965      1.00000
      5     -14.9375      1.00000
      6     -14.8466      1.00000
      7     -14.7795      1.00000
      8     -14.7381      1.00000
      9     -14.6797      1.00000
     10     -14.6673      1.00000
     11     -14.6286      1.00000
     12     -14.5305      1.00000
     13     -14.3972      1.00000
     14     -14.2623      1.00000
     15     -14.1828      1.00000
     16     -14.0588      1.00000
     17      -4.4172      1.00000
     18      -4.1383      1.00000
     19      -3.5152      1.00000
     20      -3.3100      1.00000
     21      -3.2509      1.00000
     22      -3.1886      1.00000
     23      -3.1240      1.00000
     24      -3.1158      1.00000
     25      -2.8726      1.00000
     26      -2.7709      1.00000
     27      -2.7163      1.00000
     28      -2.5347      1.00000
     29      -2.4249      1.00000
     30      -2.4134      1.00000
     31      -2.3911      1.00000
     32      -2.2495      1.00000
     33      -2.2224      1.00000
     34      -2.1612      1.00000
     35      -2.0820      1.00000
     36      -1.9578      1.00000
     37      -1.9432      1.00000
     38      -1.7972      1.00000
     39      -1.6903      1.00000
     40      -1.6187      1.00000
     41      -1.5277      1.00000
     42      -1.4788      1.00000
     43      -1.3159      1.00000
     44      -1.2912      1.00000
     45      -1.1343      1.00000
     46      -1.0646      1.00000
     47      -0.8663      1.00000
     48      -0.8424      1.00000
     49      -0.8248      1.00000
     50      -0.7863      1.00000
     51      -0.7370      1.00000
     52      -0.6703      1.00000
     53      -0.6117      1.00000
     54      -0.4863      1.00000
     55      -0.4237      1.00000
     56      -0.3527      1.00000
     57      -0.2883      1.00000
     58      -0.1600      1.00000
     59      -0.1042      1.00000
     60      -0.0966      1.00000
[...]
     82       4.0540      0.00000
     83       4.1076      0.00000
     84       4.2470      0.00000
     85       5.1581      0.00000
     86       5.2343      0.00000
     87       5.3846      0.00000
     88       5.5352      0.00000
     89       5.6238      0.00000
     90       5.7137      0.00000
     91       5.9557      0.00000
     92       6.1739      0.00000
     93       6.2661      0.00000
     94       6.4166      0.00000
     95       6.5119      0.00000
     96       6.6085      0.00000

 soft charge-density along one line, spin component           1
         0         1         2         3         4         5         6         7         8         9
 total charge-density along one line

 soft charge-density along one line, spin component           2
         0         1         2         3         4         5         6         7         8         9
 total charge-density along one line

------------------------ aborting loop because EDIFF is reached ----------------------------------------

 total charge

# of ion     s       p       d       tot
  1        0.297   0.406   4.806   5.509
  2        0.301   0.417   4.797   5.515
  3        0.340   0.519   4.792   5.651
  4        0.344   0.529   4.792   5.664
  5        0.300   0.411   4.807   5.518
  6        0.298   0.406   4.812   5.517
  7        0.340   0.513   4.791   5.644
  8        0.333   0.494   4.793   5.620
  9        1.576   3.408   0.000   4.984
 10        1.579   3.396   0.000   4.975
 11        1.558   3.475   0.000   5.033
 12        1.558   3.467   0.000   5.025
 13        1.573   3.417   0.000   4.990
 14        1.572   3.416   0.000   4.987
 15        1.560   3.467   0.000   5.027
 16        1.559   3.478   0.000   5.037
 17        1.567   3.459   0.000   5.026
 18        1.565   3.453   0.000   5.018
 19        1.565   3.466   0.000   5.031
 20        1.561   3.459   0.000   5.020
 21        1.570   3.444   0.000   5.014
 22        1.570   3.461   0.000   5.031
 23        1.560   3.459   0.000   5.019
 24        1.565   3.464   0.000   5.029
 25        0.104   0.213   0.000   0.317
 26        0.100   0.205   0.000   0.305
 27        0.106   0.218   0.000   0.325
 28        0.093   0.186   0.000   0.279
tot       28.014  59.706  38.390 126.111

 magnetization (x)

[...]

  FORCE on cell =-STRESS in cart. coord.  units (eV):
  Direction    XX          YY          ZZ          XY          YZ          ZX
  Alpha Z   543.23214   543.23214   543.23214
  Ewald   -2671.13423 -1321.96598 -3748.09676    -0.00000    -0.00000  -495.10318
  Hartree  1096.87724  1856.98187   242.18560    -0.00000    -0.00000  -245.43668
  E(xc)    -761.16696  -761.48156  -761.80510    -0.00000     0.00000     0.14066
  Local    -705.53601 -2748.69861  1230.80878    -0.00000    -0.00000   715.10426
  n-local  -529.65642  -510.08074  -527.34911    -0.00010     0.00009   -10.59832
  augment   359.33526   348.57286   358.90342    -0.00000     0.00000     6.39773
  Kinetic  2667.99444  2593.27338  2662.25252     0.00039    -0.00022    29.40551
  Fock        0.00000     0.00000     0.00000     0.00000     0.00000     0.00000
  Total      -0.05453    -0.16663     0.13149     0.00000     0.00000    -0.09002
  in kB      -0.30064    -0.91868     0.72496     0.00000     0.00000    -0.49631

 VOLUME and BASIS-vectors are now :
  energy-cutoff  :      520.00
  volume of cell :      290.61
      direct lattice vectors                 reciprocal lattice vectors
     0.000000000  2.905523818  0.000000000     0.000000000  0.344172019  0.000000000
     0.293184104  0.000000000 10.268810781    -0.002982187  0.000000000  0.097467404
     9.748543512  0.000000000  0.298273828     0.102669114  0.000000000 -0.002931299

  length of vectors
     2.905523818 10.272995268  9.753105551     0.344172019  0.097513016  0.102710952

 FORCES acting on ions
    electron-ion (+dipol)            ewald-force                    non-local-force                 convergence-correction
   -.192E+02 -.287E-13 -.590E+01   0.184E+02 -.137E-13 0.515E+01   0.701E+00 0.348E-21 0.781E+00   0.114E+00 0.314E-13 -.402E-01
   -.921E+01 -.228E-13 -.319E+02   0.772E+01 -.696E-14 0.326E+02   0.131E+01 0.718E-22 -.702E+00   0.158E+00 -.264E-12 0.270E-02
   -.956E+02 -.209E-13 0.327E+02   0.970E+02 0.221E-13 -.327E+02   -.122E+01 -.193E-21 0.459E-01   -.133E+00 -.103E-13 -.926E-01
   -.865E+02 -.197E-13 -.122E+02   0.877E+02 0.667E-14 0.120E+02   -.108E+01 -.101E-21 0.790E-01   -.159E+00 0.820E-12 0.466E-01
   0.140E+02 0.617E-14 0.358E+02   -.120E+02 0.313E-13 -.364E+02   -.177E+01 0.838E-22 0.664E+00   -.168E+00 0.385E-13 -.308E-02
   0.881E+01 0.105E-13 -.100E+02   -.772E+01 0.369E-13 0.102E+02   -.951E+00 -.248E-21 -.204E+00   -.129E+00 0.408E-12 0.171E-01
   0.655E+02 0.295E-13 0.291E+02   -.675E+02 0.430E-13 -.295E+02   0.182E+01 0.866E-22 0.423E+00   0.187E+00 0.199E-12 -.698E-01
   0.738E+02 0.286E-13 -.240E+02   -.758E+02 -.469E-14 0.233E+02   0.185E+01 -.201E-21 0.626E+00   0.122E+00 0.769E-12 0.835E-01
   0.111E+03 0.297E-12 0.115E+03   -.121E+03 -.684E-14 -.127E+03   0.922E+01 0.655E-21 0.126E+02   0.110E+00 -.218E-12 -.499E-01
   0.995E+02 0.286E-12 0.684E+02   -.109E+03 0.252E-13 -.780E+02   0.914E+01 -.929E-21 0.944E+01   0.174E+00 -.231E-12 0.147E+00
   -.127E+02 0.335E-12 0.248E+01   0.994E+01 -.115E-13 -.180E+01   0.294E+01 -.559E-21 -.762E+00   -.192E+00 -.181E-11 0.698E-01
   -.224E+02 0.325E-12 -.105E+02   0.224E+02 -.190E-13 0.114E+02   0.161E+00 0.114E-20 -.103E+01   -.172E+00 -.990E-13 0.131E+00
   -.122E+03 0.390E-12 -.723E+02   0.134E+03 0.115E-13 0.803E+02   -.119E+02 0.856E-21 -.800E+01   -.143E+00 -.118E-12 -.865E-01
   -.121E+03 0.420E-12 -.108E+03   0.132E+03 -.560E-14 0.118E+03   -.106E+02 -.646E-21 -.104E+02   -.836E-01 -.259E-12 0.801E-01
   0.199E+02 0.371E-12 0.962E+01   -.209E+02 -.110E-13 -.103E+02   0.756E+00 0.153E-22 0.868E+00   0.174E+00 0.122E-11 -.138E+00
   0.110E+02 0.378E-12 -.631E+01   -.941E+01 -.896E-14 0.434E+01   -.177E+01 0.869E-22 0.208E+01   0.186E+00 -.857E-13 -.885E-01
   -.186E+02 0.308E-12 -.199E+03   0.174E+02 -.939E-14 0.214E+03   0.100E+01 -.110E-21 -.149E+02   0.130E+00 -.138E-12 -.488E-01
   -.992E+01 0.288E-12 -.236E+03   0.831E+01 -.601E-14 0.249E+03   0.158E+01 0.717E-21 -.138E+02   0.272E-01 -.726E-13 0.559E-01
   -.478E+02 0.311E-12 0.193E+03   0.554E+02 0.193E-15 -.204E+03   -.766E+01 -.136E-21 0.111E+02   0.142E-01 -.107E-12 -.962E-01
   -.506E+02 0.304E-12 0.168E+03   0.576E+02 0.554E-14 -.179E+03   -.702E+01 -.214E-20 0.115E+02   -.275E-02 0.185E-11 0.356E-02
   0.361E+02 0.422E-12 0.236E+03   -.400E+02 -.224E-13 -.251E+03   0.401E+01 -.594E-21 0.146E+02   -.381E-01 -.100E-12 -.355E-01
   0.326E+02 0.392E-12 0.199E+03   -.360E+02 0.333E-14 -.213E+03   0.350E+01 0.283E-21 0.143E+02   -.121E+00 -.183E-12 0.381E-01
   0.615E+02 0.413E-12 -.166E+03   -.678E+02 0.258E-13 0.177E+03   0.638E+01 -.309E-20 -.114E+02   -.220E-01 -.119E-12 0.191E-03
   0.686E+02 0.395E-12 -.189E+03   -.759E+02 0.812E-14 0.200E+03   0.736E+01 -.506E-21 -.110E+02   -.422E-01 -.176E-12 0.105E+00
   0.116E+02 0.140E-15 -.250E+01   -.120E+02 0.210E-14 0.285E+01   0.413E+00 0.121E-21 -.323E+00   0.519E-02 -.239E-15 -.117E-01
   -.626E+01 0.238E-14 0.373E+01   0.694E+01 0.283E-14 -.403E+01   -.669E+00 0.132E-21 0.293E+00   -.782E-02 0.748E-15 0.126E-01
   0.612E+00 -.279E-14 -.120E+02   -.580E+00 0.139E-14 0.122E+02   -.146E-01 -.766E-24 -.180E+00   -.555E-02 -.343E-15 -.299E-02
   0.212E+00 0.155E-14 -.134E+02   -.638E+00 -.219E-15 0.134E+02   0.438E+00 0.331E-22 -.113E-01   -.653E-02 0.217E-15 0.300E-02
   -.787E+01 0.562E-11 -.656E+01   0.836E-13 0.996E-13 0.238E-12   0.790E+01 -.482E-20 0.652E+01   -.211E-01 0.134E-11 0.327E-01

 POSITION                                       TOTAL-FORCE (eV/Angst)
      1.34035      0.72638      0.06110        -0.007530      0.000000     -0.009321
      1.46763      0.72638      5.43173        -0.019327      0.000000     -0.042461
      6.08070      0.72638      2.57256        -0.002524      0.000000     -0.016623
      6.33747      0.72638      7.62792        -0.014440     -0.000000     -0.008870
      8.43488      2.17914      5.17005         0.019809      0.000000      0.030348
      8.27990      2.17914      0.26978         0.010967     -0.000000     -0.004960
      3.47121      2.17914      2.93598         0.004449      0.000000      0.006939
      3.71727      2.17914      7.95829        -0.000933      0.000000      0.008017
      2.63264      0.72638      2.05475         0.004005      0.000000      0.009297
      2.92419      0.72638      7.03019         0.015336      0.000000      0.013763
      7.32506      0.72638      1.12350        -0.004561     -0.000000     -0.009826
      7.57118      0.72638      6.17883        -0.014726      0.000000     -0.024513
      6.84926      2.17914      3.56961        -0.003558     -0.000000     -0.004774
      7.14846      2.17914      8.59095        -0.008586      0.000000     -0.012941
      2.25724      2.17914      4.37825         0.005876      0.000000      0.033734
      2.47452      2.17914      9.39442         0.005298      0.000000      0.014555
      4.55718      0.72638      3.80971        -0.018336      0.000000     -0.008181
      4.82075      0.72638      8.88271        -0.008776      0.000000     -0.017406
      9.37690      0.72638      4.34952        -0.002090      0.000000     -0.019218
      9.41687      0.72638      9.52325        -0.003077     -0.000000      0.014590
      5.04669      2.17914      1.71314         0.005648      0.000000      0.007857
      5.31117      2.17914      6.79426         0.016956      0.000000      0.013704
      0.46458      2.17914      1.06809        -0.004538      0.000000     -0.003640
      0.51256      2.17914      6.24746         0.003318      0.000000      0.014669
      0.59156      0.72638      2.48845         0.000954      0.000000      0.010082
      9.30290      2.17914      8.11582         0.003063      0.000000     -0.000491
      5.34136      2.17914      4.94209         0.011851      0.000000      0.003174
      5.52464      2.17914     10.07492         0.005471      0.000000      0.002495
    total drift:                                0.015493      0.000000     -0.007245

  FREE ENERGIE OF THE ION-ELECTRON SYSTEM (eV)
  free  energy   TOTEN  =      -190.38155638 eV

  energy  without entropy=     -190.38155638  energy(sigma->0) =     -190.38155638

 writing wavefunctions

 total charge

[...]

 magnetization (x)

# of ion     s       p       d       tot
  1        0.036   0.029   3.753   3.817
  2       -0.033  -0.027  -3.690  -3.750
  3        0.026   0.034   3.247   3.307
  4       -0.026  -0.035  -3.175  -3.235
  5        0.034   0.026   3.729   3.790
  6       -0.035  -0.029  -3.759  -3.823
  7        0.026   0.030   3.186   3.242
  8       -0.027  -0.028  -3.320  -3.375
  9        0.006  -0.116   0.000  -0.110
 10       -0.009   0.151   0.000   0.142
 11        0.001   0.004   0.000   0.005
 12       -0.001  -0.009   0.000  -0.009
 13        0.008  -0.105   0.000  -0.097
 14       -0.006   0.089   0.000   0.083
 15        0.000   0.006   0.000   0.007
 16       -0.001   0.000   0.000  -0.001
 17        0.001  -0.105   0.000  -0.104
 18       -0.002   0.091   0.000   0.090
 19       -0.004  -0.070   0.000  -0.074
 20        0.004   0.088   0.000   0.092
 21        0.001  -0.106   0.000  -0.105
 22       -0.000   0.114   0.000   0.114
 23       -0.005  -0.097   0.000  -0.101
 24        0.004   0.088   0.000   0.092
 25        0.001   0.002   0.000   0.003
 26       -0.000  -0.001   0.000  -0.001
 27        0.001  -0.003   0.000  -0.002
 28       -0.001   0.002   0.000   0.001
tot        0.001   0.025  -0.030  -0.004

 BZINTS: Fermi energy:  2.660343;156.000000 electrons
         Band energy:-587.593638;  BLOECHL correction:  0.000000