 vasp.5.3.3 18Dez12 (build May 12 2016 12:04:25) complex

 executed on             LinuxIFC date 2019.03.14  12:36:49

 INCAR:
 POTCAR:   PAW_PBE Mn 06Sep2000
 POTCAR:   PAW_PBE O_s 07Sep2000
 POTCAR:    PAW_PBE Li 17Jan2003
 POTCAR:   PAW_PBE Mn 06Sep2000

 POTCAR:   PAW_PBE O_s 07Sep2000

 POTCAR:    PAW_PBE Li 17Jan2003

 PAW_PBE Mn 06Sep2000                   :
 PAW_PBE O_s 07Sep2000                  :
  PAW_PBE Li 17Jan2003                  :

 POSCAR: (Li2 Mn15 O30)2  (P1) ~ CONTCAR (VASP)
  positions in direct lattice
  velocities in cartesian coordinates
 exchange correlation table for  LEXCH =        8
   RHO(1)=    0.500       N(1)  =     2000
   RHO(2)=  100.500       N(2)  =     4000

 ion  position               nearest neighbor table
   1  0.072  0.258  0.603-  52 1.91  52 1.91  31 1.92  63 1.93  72 1.95  72 1.95  10 2.93  10 2.93

   2  0.058  0.255  0.469-  51 1.91  51 1.91  32 1.93  64 1.93  71 1.95  71 1.95   9 2.94   9 2.95

[...]

  11  0.444  0.256  0.670-  53 1.92  62 1.94  62 1.94  41 1.97  42 1.97  41 1.97  91 2.40  20 2.92
                            20 2.93
  12  0.460  0.257  0.537-  40 1.91  40 1.91  43 1.92  54 1.93  61 1.95  61 1.95  19 2.94  19 2.94

[...]

  20  0.570  0.758  0.634-  31 1.91  31 1.91  52 1.92  62 1.94  53 1.95  53 1.95  11 2.92  11 2.93

  21  0.969  0.750  0.704-  77 1.93  77 1.93  42 1.95  42 1.96  86 2.04  41 2.12  91 2.70  91 2.74
                            91 2.75  91 2.79
  22  0.976  0.758  0.771-  78 1.92  78 1.92  82 1.93  87 1.94  82 1.94  73 1.96
  23  0.973  0.762  0.833-  79 1.92  79 1.92  83 1.93  83 1.93  88 1.95  74 1.95
  24  0.971  0.762  0.896-  80 1.93  84 1.93  84 1.93  80 1.93  75 1.95  89 1.96
  25  0.968  0.760  0.959-  85 1.92  85 1.93  81 1.93  81 1.93  76 1.95  90 1.97
  26  0.476  0.254  0.740-  73 1.90  73 1.90  82 1.92  86 2.01  86 2.03  77 2.08  91 2.41
  27  0.474  0.261  0.802-  74 1.92  74 1.92  87 1.93  87 1.93  83 1.94  78 1.95
  28  0.472  0.262  0.864-  75 1.92  75 1.92  88 1.93  88 1.93  79 1.95  84 1.95
  29  0.471  0.261  0.928-  89 1.92  89 1.93  76 1.93  76 1.93  80 1.95  85 1.96
  30  0.469  0.258  0.991-  90 1.92  90 1.92  33 1.93  33 1.93  81 1.96  50 1.96
  31  0.404  0.258  0.620-  20 1.91  20 1.91   1 1.92
  32  0.382  0.256  0.487-  19 1.91  19 1.91   2 1.93
  33  0.647  0.758  0.005-  30 1.93  30 1.93   3 1.94
  34  0.372  0.253  0.352-  18 1.91  18 1.91   4 1.94
  35  0.677  0.753  0.141-  17 1.92  17 1.92   5 1.93
  36  0.337  0.252  0.217-  16 1.92  16 1.92   6 1.94
  37  0.648  0.752  0.279-  15 1.92  15 1.92   7 1.93
  38  0.333  0.255  0.080-  14 1.92  14 1.92   8 1.95
  39  0.629  0.754  0.415-  13 1.91  13 1.92   9 1.93
  40  0.635  0.757  0.550-  12 1.91  12 1.91  10 1.92
  41  0.618  0.754  0.685-  11 1.97  11 1.97  91 2.09  21 2.12  91 2.17
  42  0.133  0.252  0.689-  91 1.87  21 1.95  21 1.96  11 1.97
  43  0.135  0.258  0.554-  10 1.91  10 1.91  12 1.92
  44  0.129  0.254  0.420-   9 1.91   9 1.91  13 1.93
  45  0.834  0.756  0.072-   8 1.92   8 1.92  14 1.93
  46  0.148  0.252  0.285-   7 1.91   7 1.91  15 1.94
  47  0.838  0.752  0.210-   6 1.92   6 1.92  16 1.93
  48  0.177  0.253  0.149-   5 1.92   5 1.92  17 1.95
  49  0.873  0.753  0.348-   4 1.91   4 1.92  18 1.93
  50  0.160  0.257  0.011-   3 1.91   3 1.91  30 1.96
  51  0.883  0.755  0.483-   2 1.91   2 1.91  19 1.92
  52  0.903  0.758  0.617-   1 1.91   1 1.91  20 1.92
  53  0.727  0.257  0.649-  11 1.92  20 1.95  20 1.95
  54  0.727  0.256  0.515-  12 1.93  19 1.95  19 1.95
  55  0.719  0.253  0.380-  13 1.94  18 1.95  18 1.95
  56  0.293  0.754  0.115-  17 1.95  17 1.95  14 1.96
  57  0.712  0.252  0.244-  15 1.94  16 1.95  16 1.95
  58  0.285  0.752  0.252-  16 1.94  15 1.95  15 1.95
  59  0.716  0.254  0.106-  17 1.94  14 1.95  14 1.95
  60  0.286  0.754  0.387-  18 1.94  13 1.95  13 1.95
  61  0.292  0.757  0.522-  19 1.93  12 1.95  12 1.95
  62  0.287  0.757  0.655-  20 1.94  11 1.94  11 1.94
  63  0.796  0.258  0.582-   1 1.93  10 1.95  10 1.95
  64  0.788  0.255  0.448-   2 1.93   9 1.95   9 1.95
  65  0.213  0.756  0.046-   8 1.95   8 1.95   3 1.96
  66  0.790  0.252  0.312-   4 1.94   7 1.95   7 1.95
  67  0.216  0.752  0.184-   6 1.95   6 1.95   5 1.95
  68  0.793  0.253  0.175-   6 1.95   5 1.95   5 1.95
  69  0.222  0.753  0.320-   7 1.94   4 1.95   4 1.95
  70  0.790  0.257  0.037-   8 1.94   3 1.95   3 1.96
  71  0.223  0.755  0.454-   9 1.94   2 1.95   2 1.95
  72  0.233  0.758  0.588-  10 1.93   1 1.95   1 1.95
  73  0.650  0.755  0.753-  26 1.90  26 1.90  22 1.96
  74  0.639  0.761  0.816-  27 1.92  27 1.92  23 1.95
  75  0.639  0.762  0.879-  28 1.92  28 1.92  24 1.95
  76  0.639  0.760  0.942-  29 1.93  29 1.93  25 1.95
  77  0.799  0.250  0.719-  91 1.83  21 1.93  21 1.93  26 2.08
  78  0.807  0.259  0.784-  22 1.92  22 1.92  27 1.95
  79  0.805  0.262  0.847-  23 1.92  23 1.92  28 1.95
  80  0.802  0.261  0.910-  24 1.93  24 1.93  29 1.95
  81  0.800  0.259  0.974-  25 1.93  25 1.93  30 1.96
  82  0.139  0.257  0.756-  26 1.92  22 1.93  22 1.94
  83  0.138  0.262  0.819-  23 1.93  23 1.93  27 1.94
  84  0.139  0.262  0.882-  24 1.93  24 1.93  28 1.95
  85  0.140  0.260  0.946-  25 1.92  25 1.93  29 1.96
  86  0.314  0.751  0.723-  26 2.01  91 2.02  26 2.03  21 2.04  91 2.08
  87  0.311  0.760  0.787-  27 1.93  27 1.93  22 1.94
  88  0.305  0.762  0.850-  28 1.93  28 1.93  23 1.95
  89  0.301  0.761  0.914-  29 1.92  29 1.93  24 1.96
  90  0.296  0.758  0.978-  30 1.92  30 1.92  25 1.97
  91  0.464  0.236  0.705-  77 1.83  42 1.87  86 2.02  86 2.08  41 2.09  41 2.17  11 2.40  26 2.41
                            21 2.70  21 2.74  21 2.75  21 2.79

  LATTYP: Found a triclinic cell.
 ALAT       =     5.4903156056
 B/A-ratio  =     0.5350521248
 C/A-ratio  =    12.5572158194
 COS(alpha) =     0.0000346649
 COS(beta)  =     0.0580270902
 COS(gamma) =     0.5349762708

  Lattice vectors:

 A1 = (  -4.6384454177,   2.9374079966,  -0.0048803342)
 A2 = (   0.0001390228,   2.9376050268,  -0.0000546266)
 A3 = (  -4.6620716737,   0.0013314328, -68.7852679488)

Analysis of symmetry for initial positions (statically):
 Subroutine PRICEL returns:
 Original cell was already a primitive cell.

 Routine SETGRP: Setting up the symmetry group for a
 triclinic supercell.

 Subroutine GETGRP returns: Found  1 space group operations
 (whereof  1 operations were pure point group operations)
 out of a pool of  2 trial point group operations.

The static configuration has the point symmetry C_1 .

Analysis of symmetry for dynamics (positions and initial velocities):
 Subroutine PRICEL returns:
 Original cell was already a primitive cell.

 Routine SETGRP: Setting up the symmetry group for a
 triclinic supercell.

 Subroutine GETGRP returns: Found  1 space group operations
 (whereof  1 operations were pure point group operations)
 out of a pool of  2 trial point group operations.

The dynamic configuration has the point symmetry C_1 .

Analysis of magnetic symmetry:

 Subroutine MAGSYM returns: Found  1 space group operations
 (whereof  1 operations were pure point group operations)
 out of a pool of  1 trial space group operations
 (whereof  1 operations were pure point group operations)
 and found also     1 'primitive' translations

The magnetic configuration has the point symmetry C_1 .

 irot  :   1
 isymop:   1   0   0
           0   1   0
           0   0   1

 gtrans:     0.0000000     0.0000000     0.0000000

 ptrans:     0.0000000     0.0000000     0.0000000
 rotmap:
 (   1->   1)  (   2->   2)  (   3->   3)  (   4->   4)  (   5->   5)
 (   6->   6)  (   7->   7)  (   8->   8)  (   9->   9)  (  10->  10)
 (  11->  11)  (  12->  12)  (  13->  13)  (  14->  14)  (  15->  15)
 (  16->  16)  (  17->  17)  (  18->  18)  (  19->  19)  (  20->  20)
 (  21->  21)  (  22->  22)  (  23->  23)  (  24->  24)  (  25->  25)
 (  26->  26)  (  27->  27)  (  28->  28)  (  29->  29)  (  30->  30)
 (  31->  31)  (  32->  32)  (  33->  33)  (  34->  34)  (  35->  35)
 (  36->  36)  (  37->  37)  (  38->  38)  (  39->  39)  (  40->  40)
 (  41->  41)  (  42->  42)  (  43->  43)  (  44->  44)  (  45->  45)
 (  46->  46)  (  47->  47)  (  48->  48)  (  49->  49)  (  50->  50)
 (  51->  51)  (  52->  52)  (  53->  53)  (  54->  54)  (  55->  55)
 (  56->  56)  (  57->  57)  (  58->  58)  (  59->  59)  (  60->  60)
 (  61->  61)  (  62->  62)  (  63->  63)  (  64->  64)  (  65->  65)
 (  66->  66)  (  67->  67)  (  68->  68)  (  69->  69)  (  70->  70)
 (  71->  71)  (  72->  72)  (  73->  73)  (  74->  74)  (  75->  75)
 (  76->  76)  (  77->  77)  (  78->  78)  (  79->  79)  (  80->  80)
 (  81->  81)  (  82->  82)  (  83->  83)  (  84->  84)  (  85->  85)
 (  86->  86)  (  87->  87)  (  88->  88)  (  89->  89)  (  90->  90)
 (  91->  91)

 KPOINTS: Automatic mesh

Automatic generation of k-mesh.
Space group operators:
 irot       det(A)        alpha          n_x          n_y          n_z        tau_x        tau_y        tau_z
    1     1.000000     0.000000     1.000000     0.000000     0.000000     0.000000     0.000000     0.000000

 Subroutine IBZKPT returns following result:

 Found      4 irreducible k-points:

 Following reciprocal coordinates:
            Coordinates               Weight
  0.000000  0.000000  0.000000      1.000000
  0.500000  0.000000 -0.000000      1.000000
 -0.000000  0.333333 -0.000000      2.000000
  0.500000  0.333333 -0.000000      2.000000

 Following cartesian coordinates:
            Coordinates               Weight
  0.000000  0.000000  0.000000      1.000000
  0.107792 -0.000005 -0.000037      1.000000
 -0.000005  0.113471  0.000003      2.000000
  0.107787  0.113466 -0.000034      2.000000

 I would recommend the setting:
   dimension x,y,z NGX =    23 NGY =   14 NGZ =  336
 SYSTEM =  unknown system
 POSCAR =  (Li2 Mn15 O30)2  (P1) ~ CONTCAR (VASP)

 Startparameter for this run:
   NWRITE =      1    write-flag & timer
   PREC   = normal    normal or accurate (medium, high low for compatibility)
   ISTART =      0    job   : 0-new  1-cont  2-samecut
   ICHARG =      2    charge: 1-file 2-atom 10-const
   ISPIN  =      2    spin polarized calculation?
   LNONCOLLINEAR =      F non collinear calculations
   LSORBIT =      F    spin-orbit coupling
   INIWAV =      1    electr: 0-lowe 1-rand  2-diag
   LASPH  =      F    aspherical Exc in radial PAW
   METAGGA=      F    non-selfconsistent MetaGGA calc.

 Electronic Relaxation 1
   ENCUT  =  400.0 eV  29.40 Ry    5.42 a.u.   7.56  4.79112.16*2*pi/ulx,y,z
   ENINI  =  400.0     initial cutoff
   ENAUG  =  500.7 eV  augmentation charge cutoff
   NELM   =     60;   NELMIN=  2; NELMDL= -5     # of ELM steps
   EDIFF  = 0.1E-03   stopping-criterion for ELM
   LREAL  =      F    real-space projection
   NLSPLINE    = F    spline interpolate recip. space projectors
   LCOMPAT=      F    compatible to vasp.4.4
   GGA_COMPAT  = T    GGA compatible to vasp.4.4-vasp.4.6
   LMAXPAW     = -100 max onsite density
   LMAXMIX     =    4 max onsite mixed and CHGCAR
   VOSKOWN=      1    Vosko Wilk Nusair interpolation
   ROPT   =    0.00000   0.00000   0.00000
 Ionic relaxation
   EDIFFG = 0.1E-02   stopping-criterion for IOM
[...]

 FORCES acting on ions
    electron-ion (+dipol)            ewald-force                    non-local-force                 convergence-correction
   -.117E+02 0.238E-01 0.178E+03   0.120E+02 -.280E-01 -.177E+03   -.268E+00 -.190E-02 -.874E+00   -.277E-02 0.215E-02 0.202E+00
   -.167E+02 0.449E-01 0.127E+03   0.168E+02 -.445E-01 -.127E+03   -.120E+00 -.832E-04 -.899E+00   -.410E-02 -.968E-04 0.323E+00
   0.567E+01 0.180E-01 -.372E+03   -.565E+01 -.194E-01 0.371E+03   -.782E-02 0.163E-02 0.859E+00   0.987E-02 -.863E-04 -.175E+00
   -.112E+02 0.383E-01 0.244E+02   0.114E+02 -.377E-01 -.236E+02   -.118E+00 0.264E-03 -.876E+00   -.823E-02 -.302E-03 0.126E-01
   0.119E+02 0.219E-01 -.126E+03   -.118E+02 -.213E-01 0.125E+03   -.126E+00 0.983E-03 0.912E+00   0.443E-02 -.543E-03 -.230E+00
   -.801E+01 0.349E-01 -.154E+03   0.796E+01 -.334E-01 0.155E+03   0.529E-01 0.377E-04 -.831E+00   -.314E-02 -.562E-03 -.217E+00
   0.180E+02 0.600E-02 0.687E+02   -.180E+02 -.585E-02 -.696E+02   -.216E-01 0.772E-03 0.959E+00   -.616E-02 -.341E-03 -.914E-01
   -.149E+02 0.353E-01 -.395E+03   0.148E+02 -.344E-01 0.396E+03   0.160E+00 -.621E-03 -.757E+00   -.489E-03 -.107E-03 -.204E+00
   0.158E+02 0.145E-01 0.185E+03   -.159E+02 -.148E-01 -.187E+03   0.128E+00 0.107E-02 0.956E+00   -.768E-03 -.273E-03 0.279E+00
   0.189E+02 -.868E-02 0.253E+03   -.190E+02 0.511E-02 -.255E+03   0.118E+00 -.437E-03 0.939E+00   0.900E-02 0.137E-02 0.264E+00
   0.186E+02 0.766E-01 0.215E+03   -.187E+02 -.433E-01 -.215E+03   0.706E-01 -.357E-01 0.232E+00   0.860E-03 0.889E-03 0.928E-01
   0.112E+02 0.134E-01 0.163E+03   -.114E+02 -.154E-01 -.162E+03   0.164E+00 0.482E-03 -.909E+00   0.636E-02 0.490E-03 0.301E+00
   0.115E+02 0.148E-01 0.839E+02   -.117E+02 -.156E-01 -.833E+02   0.152E+00 0.109E-02 -.882E+00   0.455E-02 -.143E-03 0.213E+00
   -.785E+01 0.528E-01 -.248E+03   0.776E+01 -.523E-01 0.247E+03   0.854E-01 0.213E-03 0.927E+00   -.668E-02 -.281E-03 -.230E+00
   0.665E+01 0.797E-02 -.533E+02   -.672E+01 -.755E-02 0.543E+02   0.678E-01 0.862E-03 -.870E+00   0.663E-02 -.461E-03 -.152E+00
   -.154E+02 0.397E-01 -.181E+02   0.153E+02 -.385E-01 0.173E+02   0.112E+00 0.924E-04 0.926E+00   0.135E-02 -.487E-03 -.197E+00
   0.104E+02 0.854E-02 -.270E+03   -.103E+02 -.788E-02 0.271E+03   -.121E+00 0.443E-03 -.797E+00   0.518E-03 -.415E-03 -.232E+00
   -.153E+02 0.330E-01 0.134E+03   0.154E+02 -.324E-01 -.135E+03   -.780E-01 -.166E-03 0.962E+00   0.396E-02 -.159E-03 0.102E+00
   -.130E+02 0.446E-01 0.225E+03   0.131E+02 -.440E-01 -.227E+03   -.130E+00 -.387E-03 0.945E+00   -.495E-02 -.105E-03 0.330E+00
   -.182E+02 0.493E-01 0.253E+03   0.185E+02 -.536E-01 -.254E+03   -.282E+00 -.752E-03 0.945E+00   -.553E-02 0.177E-02 0.153E+00
   0.493E+01 -.423E+00 0.293E+03   -.481E+01 0.363E+00 -.292E+03   -.120E+00 0.727E-01 -.399E+00   0.278E-02 -.434E-02 0.447E-01
   -.226E+01 0.899E-01 0.221E+03   0.225E+01 -.892E-01 -.221E+03   0.841E-02 -.490E-02 -.211E+00   0.134E-02 0.151E-02 -.183E-01
   -.191E+01 -.178E-02 0.205E+02   0.188E+01 -.205E-02 -.204E+02   0.315E-01 -.262E-02 -.408E-01   -.180E-02 0.227E-02 -.500E-01
   -.134E+01 0.175E-01 -.167E+03   0.133E+01 -.192E-01 0.167E+03   0.161E-01 -.421E-03 0.126E-01   -.114E-02 0.687E-03 -.805E-01
   -.192E+01 0.360E-01 -.329E+03   0.194E+01 -.368E-01 0.329E+03   -.915E-02 -.124E-04 -.129E-01   0.568E-02 0.270E-03 -.117E+00
   0.184E+01 0.481E+00 0.286E+03   -.205E+01 -.422E+00 -.284E+03   0.202E+00 -.546E-01 -.167E+01   -.197E-03 -.138E-02 0.674E-02
   0.145E+01 0.675E-01 0.122E+03   -.141E+01 -.700E-01 -.122E+03   -.308E-01 -.450E-02 -.243E-02   -.621E-03 0.252E-02 -.365E-01
   0.134E+01 0.717E-02 -.770E+02   -.132E+01 -.999E-02 0.771E+02   -.173E-01 -.138E-02 -.862E-02   0.320E-04 0.142E-02 -.651E-01
   0.157E+01 0.195E-01 -.251E+03   -.159E+01 -.208E-01 0.251E+03   0.666E-02 -.144E-03 0.154E-01   -.443E-03 0.449E-03 -.967E-01
   0.642E+01 0.231E-01 -.401E+03   -.639E+01 -.243E-01 0.402E+03   -.613E-01 0.125E-02 -.610E-01   -.848E-02 -.279E-04 -.138E+00
   0.125E+02 0.745E-01 0.240E+03   -.108E+02 -.969E-01 -.252E+03   -.167E+01 0.201E-01 0.114E+02   0.280E-02 -.110E-02 0.144E+00
   0.219E+02 -.999E-01 0.200E+03   -.228E+02 0.149E+00 -.209E+03   0.899E+00 -.494E-01 0.883E+01   0.623E-02 0.102E-03 0.280E+00
   -.712E+01 -.136E+00 -.404E+03   0.636E+01 0.192E+00 0.414E+03   0.732E+00 -.563E-01 -.943E+01   -.651E-02 -.125E-03 -.145E+00
   0.234E+02 -.607E-01 0.116E+03   -.249E+02 0.900E-01 -.125E+03   0.159E+01 -.291E-01 0.841E+01   0.195E-02 0.115E-03 0.635E-01
   -.391E+02 -.831E-01 -.203E+03   0.447E+02 0.121E+00 0.206E+03   -.565E+01 -.370E-01 -.265E+01   -.834E-02 0.269E-03 -.214E+00
   0.367E+02 0.194E-02 -.345E+02   -.425E+02 -.104E-01 0.310E+02   0.576E+01 0.906E-02 0.372E+01   0.356E-02 0.318E-03 -.184E+00
   -.310E+02 0.850E-02 -.345E+02   0.337E+02 -.185E-01 0.407E+02   -.265E+01 0.104E-01 -.605E+01   0.206E-03 0.208E-03 -.106E+00
   0.417E+02 0.776E-01 -.237E+03   -.484E+02 -.125E+00 0.235E+03   0.674E+01 0.477E-01 0.261E+01   -.164E-02 0.220E-03 -.213E+00
   -.216E+02 0.597E-01 0.672E+02   0.217E+02 -.928E-01 -.583E+02   -.116E+00 0.334E-01 -.902E+01   -.108E-02 0.117E-03 0.217E+00
   -.209E+02 0.855E-01 0.131E+03   0.209E+02 -.126E+00 -.122E+03   -.118E-01 0.394E-01 -.914E+01   -.824E-02 -.327E-03 0.240E+00
   -.511E+02 -.155E+00 0.196E+03   0.602E+02 0.127E+00 -.191E+03   -.913E+01 0.302E-01 -.515E+01   -.134E-02 -.587E-03 0.612E-01
   0.157E+02 0.330E+00 0.293E+03   -.228E+02 -.596E+00 -.305E+03   0.715E+01 0.269E+00 0.128E+02   -.142E-02 0.218E-02 0.590E-01
   -.185E+02 -.491E-01 0.229E+03   0.187E+02 0.883E-01 -.239E+03   -.267E+00 -.407E-01 0.932E+01   -.862E-02 -.749E-03 0.232E+00
   -.203E+02 -.614E-01 0.165E+03   0.209E+02 0.937E-01 -.175E+03   -.594E+00 -.320E-01 0.930E+01   -.306E-02 0.120E-03 0.222E+00
   0.376E+02 -.142E+00 -.310E+03   -.428E+02 0.206E+00 0.314E+03   0.530E+01 -.642E-01 -.319E+01   0.910E-02 0.402E-04 -.207E+00
   -.282E+02 -.220E-01 0.513E+02   0.315E+02 0.294E-01 -.577E+02   -.330E+01 -.699E-02 0.653E+01   -.373E-02 0.156E-03 -.968E-01
   0.371E+02 -.541E-01 -.110E+03   -.419E+02 0.744E-01 0.114E+03   0.475E+01 -.197E-01 -.360E+01   0.452E-02 0.353E-03 -.186E+00
   -.410E+02 0.620E-01 -.133E+03   0.479E+02 -.100E+00 0.131E+03   -.690E+01 0.390E-01 0.235E+01   0.114E-02 0.302E-03 -.216E+00
   0.242E+02 0.232E-01 0.219E+02   -.251E+02 -.412E-01 -.138E+02   0.892E+00 0.181E-01 -.805E+01   0.446E-03 0.109E-03 0.516E-01
   -.436E+02 0.112E+00 -.334E+03   0.488E+02 -.174E+00 0.330E+03   -.516E+01 0.619E-01 0.390E+01   0.120E-02 0.297E-04 -.154E+00
   0.197E+02 0.609E-01 0.102E+03   -.198E+02 -.979E-01 -.937E+02   0.111E+00 0.371E-01 -.900E+01   0.422E-02 0.135E-03 0.284E+00
   0.144E+02 -.333E-01 0.133E+03   -.126E+02 0.694E-01 -.122E+03   -.181E+01 -.386E-01 -.110E+02   0.415E-02 -.111E-02 0.148E+00
   -.182E+03 -.956E-01 0.147E+03   0.216E+03 0.153E+00 -.140E+03   -.341E+02 -.594E-01 -.746E+01   -.225E-02 -.901E-03 0.106E+00
   -.183E+03 0.687E-01 0.135E+03   0.217E+03 -.970E-01 -.129E+03   -.343E+02 0.281E-01 -.571E+01   -.171E-02 0.184E-05 0.271E+00
   -.183E+03 0.415E-01 0.611E+02   0.217E+03 -.603E-01 -.555E+02   -.340E+02 0.190E-01 -.570E+01   -.332E-03 0.103E-03 0.132E+00
   0.189E+03 0.436E-01 -.193E+03   -.223E+03 -.732E-01 0.189E+03   0.339E+02 0.301E-01 0.417E+01   0.311E-02 0.153E-03 -.213E+00
   -.188E+03 -.201E-01 -.599E+02   0.222E+03 0.217E-01 0.645E+02   -.340E+02 -.102E-02 -.443E+01   0.988E-03 0.254E-03 -.155E+00
   0.186E+03 -.156E-01 -.905E+00   -.220E+03 0.152E-01 -.382E+01   0.341E+02 0.955E-03 0.488E+01   -.107E-02 0.237E-03 -.147E+00
   -.188E+03 -.960E-01 -.249E+03   0.222E+03 0.131E+00 0.253E+03   -.340E+02 -.342E-01 -.377E+01   -.415E-03 0.148E-03 -.212E+00
   0.183E+03 -.626E-01 0.127E+03   -.217E+03 0.846E-01 -.133E+03   0.340E+02 -.218E-01 0.606E+01   0.265E-02 0.908E-04 0.150E+00
[...]
   0.133E+02 0.264E+00 0.119E+03   -.114E+02 -.385E+00 -.108E+03   -.192E+01 0.119E+00 -.110E+02   -.192E-02 -.859E-03 -.118E-01
   0.140E+02 0.440E-01 -.566E+02   -.114E+02 -.385E-01 0.682E+02   -.265E+01 -.828E-02 -.115E+02   -.174E-02 -.117E-02 -.315E-01
   0.150E+02 -.935E-01 -.211E+03   -.122E+02 0.140E+00 0.223E+03   -.275E+01 -.473E-01 -.112E+02   -.110E-02 -.386E-03 -.590E-01
   0.150E+02 -.129E+00 -.345E+03   -.121E+02 0.187E+00 0.357E+03   -.294E+01 -.577E-01 -.113E+02   0.238E-02 -.134E-03 -.107E+00
   -.967E+01 -.316E+00 0.266E+03   0.476E+01 0.572E+00 -.278E+03   0.491E+01 -.257E+00 0.120E+02   -.887E-03 -.599E-03 0.227E-02
   -.133E+02 -.568E-01 0.921E+02   0.925E+01 0.102E+00 -.104E+03   0.410E+01 -.486E-01 0.121E+02   -.213E-02 -.123E-02 -.227E-01
   -.155E+02 0.644E-01 -.746E+02   0.128E+02 -.843E-01 0.633E+02   0.270E+01 0.186E-01 0.114E+02   -.268E-02 -.442E-03 -.470E-01
   -.174E+02 0.956E-01 -.218E+03   0.159E+02 -.138E+00 0.207E+03   0.154E+01 0.418E-01 0.107E+02   -.348E-02 -.600E-04 -.829E-01
   0.191E+02 -.494E+00 0.272E+03   -.226E+02 0.488E+00 -.276E+03   0.345E+01 0.110E-01 0.329E+01   -.220E-02 0.603E-03 0.219E-01
   0.120E+02 -.205E+00 0.182E+03   -.758E+01 0.341E+00 -.194E+03   -.441E+01 -.138E+00 0.120E+02   0.186E-02 -.127E-02 -.127E-01
   0.145E+02 0.395E-02 0.555E+01   -.112E+02 0.997E-02 -.170E+02   -.331E+01 -.161E-01 0.115E+02   0.362E-02 -.848E-03 -.335E-01
   0.166E+02 0.813E-01 -.149E+03   -.145E+02 -.112E+00 0.138E+03   -.207E+01 0.299E-01 0.110E+02   0.370E-02 -.185E-03 -.632E-01
   0.206E+02 0.851E-01 -.284E+03   -.199E+02 -.125E+00 0.274E+03   -.721E+00 0.395E-01 0.104E+02   0.187E-02 0.250E-04 -.112E+00
   -.598E+00 -.827E+00 0.413E+02   0.697E+00 0.700E+00 -.410E+02   -.105E+00 0.154E+00 -.275E+00   -.651E-04 0.305E-05 0.678E-02
   0.184E+01 -.245E+00 0.418E+01   -.477E-12 0.247E-12 0.153E-11   -.185E+01 0.239E+00 -.418E+01   0.472E-02 -.310E-04 -.989E-02

 POSITION                                       TOTAL-FORCE (eV/Angst)
      0.34695      0.75748     41.50843         0.004543     -0.003874     -0.015348
      0.28228      0.74896     32.28479         0.002963      0.000230     -0.039885
      4.48601      2.22389      1.58182         0.022229      0.000221      0.087790
      0.24990      0.74181     22.99800        -0.014738      0.000605     -0.076091
      4.52549      2.21166     11.06087         0.004506      0.001068      0.019405
      0.16637      0.74130     13.61497         0.002737      0.001034     -0.002089
      4.46469      2.20991     20.47646        -0.021752      0.000656     -0.073228
      0.15588      0.75143      4.14784         0.025400      0.000206      0.094612
      4.43006      2.21617     29.78494        -0.015756      0.000563     -0.049235
      4.46361      2.22581     39.02801        -0.017582     -0.002566     -0.018714
      2.07593      0.75186     46.06323         0.000580     -0.001376     -0.006441
      2.14364      0.75429     36.91340        -0.013744     -0.000961     -0.024077
      2.11142      0.74506     27.65449         0.010907      0.000297     -0.063407
      2.47866      2.21669      6.32367        -0.012741      0.000507      0.076098
      2.14479      0.74035     18.32394         0.012007      0.000891     -0.056242
      2.48501      2.20935     15.77889         0.011466      0.000948     -0.040063
      2.21143      0.74520      8.88988        -0.014447      0.000763      0.057215
      2.56971      2.21235     25.13836         0.024476      0.000410     -0.072437
      2.60663      2.22073     34.40958         0.013948      0.000222     -0.029543
      2.66079      2.22461     43.60311         0.009248     -0.003228     -0.012340
      4.51121      2.20239     48.44832        -0.002925      0.007766      0.001011
      4.54519      2.22683     53.00776         0.000241     -0.002617      0.014916
      4.53372      2.23728     57.30340         0.001588     -0.004107      0.020964
      4.52361      2.23618     61.63319         0.003737     -0.001369      0.023282
      4.51523      2.23004     65.99534         0.016523     -0.000508      0.029804
      2.22754      0.74565     50.87483        -0.002809      0.002697      0.009442
      2.21709      0.76514     55.15060         0.000826     -0.004399      0.019112
      2.20922      0.76881     59.46102         0.002590     -0.002699      0.022276
      2.20568      0.76446     63.80873        -0.005585     -0.000883      0.024296
      2.19880      0.75750     68.18003        -0.033880      0.000142      0.073815
      1.89032      0.75617     42.65575         0.014485     -0.003342     -0.011849
      1.78326      0.75119     33.50106         0.030168      0.000242     -0.010234
      2.99984      2.22697      0.34214        -0.040719     -0.000192     -0.037673
      1.73637      0.74309     24.23766         0.034556      0.000370      0.034241
      3.14222      2.21346      9.70890        -0.029852      0.000826     -0.031644
      1.57093      0.74055     14.95581         0.013903      0.000992     -0.004340
      3.01432      2.20922     19.19750         0.021742      0.000698      0.037880
      1.54623      0.74839      5.51598        -0.026067      0.000716     -0.068752
      2.92659      2.21424     28.57430         0.011782      0.000382      0.025704
      2.95763      2.22362     37.83079        -0.026792     -0.001133      0.005864
      2.88327      2.21563     47.09756        -0.006122      0.000780      0.004393
      0.63267      0.73826     47.39822        -0.005624      0.004851      0.003885
      0.63604      0.75626     38.10993        -0.033005     -0.002157     -0.022736
      0.60665      0.74659     28.86562        -0.028856      0.000432      0.016271
      3.87014      2.21961      4.98002         0.053690      0.000191     -0.057363
      0.69274      0.74062     19.60446        -0.030313      0.000580      0.027434
      3.89149      2.21007     14.45232         0.001937      0.001010      0.008285
      0.82449      0.74294     10.25631         0.010915      0.001032     -0.043000
      4.05606      2.21107     23.90654        -0.023593      0.000355      0.040703
      0.74189      0.75554      0.73710         0.018478      0.000062     -0.055337
      4.10643      2.21844     33.20466         0.010740      0.000363      0.012490
      4.20643      2.22627     42.46114         0.012554     -0.003492      0.000865
      3.39001      0.75493     44.65671        -0.000490     -0.003083      0.000847
      3.38299      0.75218     35.43222        -0.007903     -0.000096      0.000655
      3.34653      0.74368     26.16261        -0.010207      0.000336      0.021843
      1.36389      2.21443      7.93265         0.001739      0.000704     -0.044752
      3.30884      0.74031     16.76729         0.002787      0.000883      0.017515
      1.32706      2.20916     17.34114        -0.005520      0.000839      0.009071
      3.32375      0.74710      7.29442         0.007518      0.000636     -0.031889
      1.33726      2.21352     26.63384        -0.001202      0.000415      0.019377
[...]
      3.72532      0.73482     49.42706        -0.003388      0.007113      0.000944
      3.75987      0.75954     53.95972        -0.001225     -0.003038      0.013342
      3.75518      0.76856     58.26828         0.002726     -0.003878      0.025114
      3.74189      0.76674     62.60247         0.004758     -0.001295      0.022408
      3.73323      0.76035     66.96732         0.013706     -0.000246     -0.006880
      0.66297      0.75500     51.99577         0.001389     -0.001337      0.012018
      0.66177      0.76768     56.31556         0.003292     -0.004158      0.023054
      0.66633      0.76738     60.65924        -0.000688     -0.001588      0.022753
      0.67200      0.76146     65.03377        -0.001069     -0.000346      0.004672
      1.47233      2.20563     49.71148        -0.004235      0.005393      0.004831
      1.46033      2.23237     54.15834        -0.001265     -0.003948      0.018115
      1.43561      2.23760     58.48611         0.003403     -0.003001      0.024190
      1.41958      2.23376     62.84430         0.002879     -0.000762      0.014575
      1.39687      2.22686     67.23801        -0.010061     -0.000110     -0.021632
      2.16693      0.69267     48.46252        -0.006304      0.026319      0.004177
    total drift:                               -0.005366     -0.006572     -0.001245

  FREE ENERGIE OF THE ION-ELECTRON SYSTEM (eV)
  free  energy   TOTEN  =      -640.61301830 eV

  energy  without entropy=     -640.67410052  energy(sigma->0) =     -640.63337904

 d Force = 0.1505353E-02[ 0.127E-02, 0.174E-02]  d Energy = 0.1366237E-02 0.139E-03
 d Force =-0.6731708E+00[-0.681E+00,-0.665E+00]  d Ewald  = 0.4739078E+00-0.115E+01

 reached required accuracy - stopping structural energy minimisation