 vasp.5.3.3 18Dez12 (build May 12 2016 12:04:25) complex

 executed on             LinuxIFC date 2019.05.18  10:53:10

 INCAR:
 POTCAR:    PAW_PBE O 08Apr2002
 POTCAR:    PAW_PBE Mn 06Sep2000
 POTCAR:    PAW_PBE O 08Apr2002

 POTCAR:    PAW_PBE Mn 06Sep2000

  PAW_PBE O 08Apr2002                   :
  PAW_PBE Mn 06Sep2000                  :

 POSCAR: (Mn O2)2  (P4_2/mnm) ~  (Pearson #311740
  positions in direct lattice
  velocities in cartesian coordinates
 exchange correlation table for  LEXCH =       14
   RHO(1)=    0.500       N(1)  =     2000
   RHO(2)=  100.500       N(2)  =     4000

 ion  position               nearest neighbor table
   1  0.305  0.305  0.000-   6 1.89   6 1.89   5 1.90
   2  0.805  0.195  0.500-   5 1.89   5 1.89   6 1.90
   3  0.195  0.805  0.500-   5 1.89   5 1.89   6 1.90
   4  0.695  0.695  0.000-   6 1.89   6 1.89   5 1.90
   5  0.000  0.000  0.000-   2 1.89   3 1.89   2 1.89   3 1.89   1 1.90   4 1.90
   6  0.500  0.500  0.500-   1 1.89   4 1.89   1 1.89   4 1.89   3 1.90   2 1.90

  LATTYP: Found a simple tetragonal cell.
 ALAT       =     4.3922967031
 C/A-ratio  =     0.6600940027

  Lattice vectors:

 A1 = (   4.3922967031,   0.0000000000,   0.0000000000)
 A2 = (   0.0000000000,   4.3922967031,   0.0000000000)
 A3 = (   0.0000000000,   0.0000000000,   2.8993287118)

Analysis of symmetry for initial positions (statically):
 Subroutine PRICEL returns:
 Original cell was already a primitive cell.

 Routine SETGRP: Setting up the symmetry group for a
 simple tetragonal supercell.

 Subroutine GETGRP returns: Found 16 space group operations
 (whereof  8 operations were pure point group operations)
 out of a pool of 16 trial point group operations.

The static configuration has the point symmetry D_2h.
 The point group associated with its full space group is D_4h.

Analysis of symmetry for dynamics (positions and initial velocities):
 Subroutine PRICEL returns:
 Original cell was already a primitive cell.

 Routine SETGRP: Setting up the symmetry group for a
 simple tetragonal supercell.

 Subroutine GETGRP returns: Found 16 space group operations
 (whereof  8 operations were pure point group operations)
 out of a pool of 16 trial point group operations.

The dynamic configuration has the point symmetry D_2h.
 The point group associated with its full space group is D_4h.

Analysis of magnetic symmetry:

 Subroutine MAGSYM returns: Found 16 space group operations
 (whereof  8 operations were pure point group operations)
 out of a pool of 16 trial space group operations
 (whereof  8 operations were pure point group operations)
 and found also     1 'primitive' translations

The magnetic configuration has the point symmetry D_2h.
 The point group associated with its full space group is D_4h.

 irot  :   1
 isymop:   1   0   0
           0   1   0
           0   0   1

 gtrans:     0.0000000     0.0000000     0.0000000

 ptrans:     0.0000000     0.0000000     0.0000000
 rotmap:
 (   1->   1)  (   2->   2)  (   3->   3)  (   4->   4)  (   5->   5)
 (   6->   6)

[...]

 irot  :  16
 isymop:  -1   0   0
           0   1   0
           0   0   1

 gtrans:     0.5000000     0.5000000     0.5000000

 ptrans:     0.0000000     0.0000000     0.0000000
 rotmap:
 (   1->   3)  (   2->   4)  (   3->   1)  (   4->   2)  (   5->   6)
 (   6->   5)

 KPOINTS: Automatic mesh

Automatic generation of k-mesh.
Space group operators:
 irot       det(A)        alpha          n_x          n_y          n_z        tau_x        tau_y        tau_z
    1     1.000000     0.000001     1.000000     0.000000     0.000000     0.000000     0.000000     0.000000
    2    -1.000000     0.000001     1.000000     0.000000     0.000000     0.000000     0.000000     0.000000
    3     1.000000   179.999999     0.000000     0.000000     1.000000     0.000000     0.000000     0.000000
    4    -1.000000   179.999999     0.000000     0.000000     1.000000     0.000000     0.000000     0.000000
    5     1.000000   180.000000     0.707107     0.707107     0.000000     0.000000     0.000000     0.000000
    6    -1.000000   180.000000     0.707107     0.707107     0.000000     0.000000     0.000000     0.000000
    7     1.000000   180.000000     0.707107    -0.707107     0.000000     0.000000     0.000000     0.000000
    8    -1.000000   180.000000     0.707107    -0.707107     0.000000     0.000000     0.000000     0.000000
    9     1.000000    90.000000     0.000000     0.000000    -1.000000     0.500000     0.500000     0.500000
   10    -1.000000    90.000000     0.000000     0.000000    -1.000000     0.500000     0.500000     0.500000
   11     1.000000    90.000000     0.000000     0.000000     1.000000     0.500000     0.500000     0.500000
   12    -1.000000    90.000000     0.000000     0.000000     1.000000     0.500000     0.500000     0.500000
   13     1.000000   180.000000     0.000000     1.000000     0.000000     0.500000     0.500000     0.500000
   14    -1.000000   180.000000     0.000000     1.000000     0.000000     0.500000     0.500000     0.500000
   15     1.000000   180.000000     1.000000     0.000000     0.000000     0.500000     0.500000     0.500000
   16    -1.000000   180.000000     1.000000     0.000000     0.000000     0.500000     0.500000     0.500000

 Subroutine IBZKPT returns following result:

 Found     50 irreducible k-points:

 Following reciprocal coordinates:
            Coordinates               Weight
  0.000000  0.000000  0.000000      1.000000
  0.166667  0.000000  0.000000      4.000000
  0.333333  0.000000  0.000000      4.000000
  0.500000  0.000000  0.000000      2.000000
  0.166667  0.166667  0.000000      4.000000
  0.333333  0.166667  0.000000      8.000000
  0.500000  0.166667  0.000000      4.000000
  0.333333  0.333333  0.000000      4.000000
  0.500000  0.333333  0.000000      4.000000
  0.500000  0.500000  0.000000      1.000000
  0.000000  0.000000  0.111111      2.000000
  0.166667  0.000000  0.111111      8.000000
  0.333333  0.000000  0.111111      8.000000
  0.500000  0.000000  0.111111      4.000000
  0.166667  0.166667  0.111111      8.000000
  0.333333  0.166667  0.111111     16.000000
  0.500000  0.166667  0.111111      8.000000
  0.333333  0.333333  0.111111      8.000000
  0.500000  0.333333  0.111111      8.000000
  0.500000  0.500000  0.111111      2.000000
  0.000000  0.000000  0.222222      2.000000
  0.166667  0.000000  0.222222      8.000000
  0.333333  0.000000  0.222222      8.000000
  0.500000  0.000000  0.222222      4.000000
  0.166667  0.166667  0.222222      8.000000
  0.333333  0.166667  0.222222     16.000000
  0.500000  0.166667  0.222222      8.000000
  0.333333  0.333333  0.222222      8.000000
  0.500000  0.333333  0.222222      8.000000
  0.500000  0.500000  0.222222      2.000000
  0.000000  0.000000  0.333333      2.000000
  0.166667  0.000000  0.333333      8.000000
  0.333333  0.000000  0.333333      8.000000
  0.500000  0.000000  0.333333      4.000000
  0.166667  0.166667  0.333333      8.000000
  0.333333  0.166667  0.333333     16.000000
  0.500000  0.166667  0.333333      8.000000
  0.333333  0.333333  0.333333      8.000000
  0.500000  0.333333  0.333333      8.000000
  0.500000  0.500000  0.333333      2.000000
  0.000000  0.000000  0.444444      2.000000
  0.166667  0.000000  0.444444      8.000000
  0.333333  0.000000  0.444444      8.000000
  0.500000  0.000000  0.444444      4.000000
  0.166667  0.166667  0.444444      8.000000
  0.333333  0.166667  0.444444     16.000000
  0.500000  0.166667  0.444444      8.000000
  0.333333  0.333333  0.444444      8.000000
  0.500000  0.333333  0.444444      8.000000
  0.500000  0.500000  0.444444      2.000000

 Following cartesian coordinates:
            Coordinates               Weight
  0.000000  0.000000  0.000000      1.000000
  0.037945  0.000000  0.000000      4.000000
  0.075890  0.000000  0.000000      4.000000
  0.113836  0.000000  0.000000      2.000000
  0.037945  0.037945  0.000000      4.000000
  0.075890  0.037945  0.000000      8.000000
  0.113836  0.037945  0.000000      4.000000
  0.075890  0.075890  0.000000      4.000000
  0.113836  0.075890  0.000000      4.000000
  0.113836  0.113836  0.000000      1.000000
  0.000000  0.000000  0.038323      2.000000
  0.037945  0.000000  0.038323      8.000000
  0.075890  0.000000  0.038323      8.000000
  0.113836  0.000000  0.038323      4.000000
  0.037945  0.037945  0.038323      8.000000
  0.075890  0.037945  0.038323     16.000000
  0.113836  0.037945  0.038323      8.000000
  0.075890  0.075890  0.038323      8.000000
  0.113836  0.075890  0.038323      8.000000
  0.113836  0.113836  0.038323      2.000000
  0.000000  0.000000  0.076646      2.000000
  0.037945  0.000000  0.076646      8.000000
  0.075890  0.000000  0.076646      8.000000
  0.113836  0.000000  0.076646      4.000000
  0.037945  0.037945  0.076646      8.000000
  0.075890  0.037945  0.076646     16.000000
  0.113836  0.037945  0.076646      8.000000
  0.075890  0.075890  0.076646      8.000000
  0.113836  0.075890  0.076646      8.000000
  0.113836  0.113836  0.076646      2.000000
  0.000000  0.000000  0.114969      2.000000
  0.037945  0.000000  0.114969      8.000000
  0.075890  0.000000  0.114969      8.000000
  0.113836  0.000000  0.114969      4.000000
  0.037945  0.037945  0.114969      8.000000
  0.075890  0.037945  0.114969     16.000000
  0.113836  0.037945  0.114969      8.000000
  0.075890  0.075890  0.114969      8.000000
  0.113836  0.075890  0.114969      8.000000
  0.113836  0.113836  0.114969      2.000000
  0.000000  0.000000  0.153292      2.000000
  0.037945  0.000000  0.153292      8.000000
  0.075890  0.000000  0.153292      8.000000
  0.113836  0.000000  0.153292      4.000000
  0.037945  0.037945  0.153292      8.000000
  0.075890  0.037945  0.153292     16.000000
  0.113836  0.037945  0.153292      8.000000
  0.075890  0.075890  0.153292      8.000000
  0.113836  0.075890  0.153292      8.000000
  0.113836  0.113836  0.153292      2.000000

 I would recommend the setting:
   dimension x,y,z NGX =    25 NGY =   25 NGZ =   16
 SYSTEM =  (Mn O2)2  (P4_2/mnm) ~  (Pearson
 POSCAR =  (Mn O2)2  (P4_2/mnm) ~  (Pearson #311740

 Startparameter for this run:
   NWRITE =      1    write-flag & timer
   PREC   = normal    normal or accurate (medium, high low for compatibility)
   ISTART =      0    job   : 0-new  1-cont  2-samecut
   ICHARG =      2    charge: 1-file 2-atom 10-const
   ISPIN  =      2    spin polarized calculation?
   LNONCOLLINEAR =      F non collinear calculations
   LSORBIT =      F    spin-orbit coupling
   INIWAV =      1    electr: 0-lowe 1-rand  2-diag
   LASPH  =      F    aspherical Exc in radial PAW
   METAGGA=      F    non-selfconsistent MetaGGA calc.

 Electronic Relaxation 1
   ENCUT  =  520.0 eV  38.22 Ry    6.18 a.u.   8.17  8.17  5.39*2*pi/ulx,y,z
   ENINI  =  520.0     initial cutoff
   ENAUG  =  605.4 eV  augmentation charge cutoff
   NELM   =     60;   NELMIN=  2; NELMDL= -5     # of ELM steps
   EDIFF  = 0.1E-03   stopping-criterion for ELM
   LREAL  =      F    real-space projection
   NLSPLINE    = F    spline interpolate recip. space projectors
[...]
 k-point 24 :   0.5000 0.0000 0.2222  plane waves:    1504
 k-point 25 :   0.1667 0.1667 0.2222  plane waves:    1505
 k-point 26 :   0.3333 0.1667 0.2222  plane waves:    1504
 k-point 27 :   0.5000 0.1667 0.2222  plane waves:    1504
 k-point 28 :   0.3333 0.3333 0.2222  plane waves:    1517
 k-point 29 :   0.5000 0.3333 0.2222  plane waves:    1520
 k-point 30 :   0.5000 0.5000 0.2222  plane waves:    1528
 k-point 31 :   0.0000 0.0000 0.3333  plane waves:    1511
 k-point 32 :   0.1667 0.0000 0.3333  plane waves:    1500
 k-point 33 :   0.3333 0.0000 0.3333  plane waves:    1500
 k-point 34 :   0.5000 0.0000 0.3333  plane waves:    1500
 k-point 35 :   0.1667 0.1667 0.3333  plane waves:    1498
 k-point 36 :   0.3333 0.1667 0.3333  plane waves:    1504
 k-point 37 :   0.5000 0.1667 0.3333  plane waves:    1504
 k-point 38 :   0.3333 0.3333 0.3333  plane waves:    1510
 k-point 39 :   0.5000 0.3333 0.3333  plane waves:    1510
 k-point 40 :   0.5000 0.5000 0.3333  plane waves:    1500
 k-point 41 :   0.0000 0.0000 0.4444  plane waves:    1514
 k-point 42 :   0.1667 0.0000 0.4444  plane waves:    1506
 k-point 43 :   0.3333 0.0000 0.4444  plane waves:    1496
 k-point 44 :   0.5000 0.0000 0.4444  plane waves:    1506
 k-point 45 :   0.1667 0.1667 0.4444  plane waves:    1503
 k-point 46 :   0.3333 0.1667 0.4444  plane waves:    1490
 k-point 47 :   0.5000 0.1667 0.4444  plane waves:    1498
 k-point 48 :   0.3333 0.3333 0.4444  plane waves:    1506
 k-point 49 :   0.5000 0.3333 0.4444  plane waves:    1504
 k-point 50 :   0.5000 0.5000 0.4444  plane waves:    1496

 maximum and minimum number of plane-waves per node :       390      364

 maximum number of plane-waves:      1528
 maximum index in each direction:
   IXMAX=    8   IYMAX=    8   IZMAX=    5
   IXMIN=   -8   IYMIN=   -8   IZMIN=   -5

 WARNING: aliasing errors must be expected set NGX to  34 to avoid them
 WARNING: aliasing errors must be expected set NGY to  34 to avoid them
 WARNING: aliasing errors must be expected set NGZ to  22 to avoid them
 aliasing errors are usually negligible using standard VASP settings
 and one can safely disregard these warnings

 parallel 3D FFT for wavefunctions:
    minimum data exchange during FFTs selected (reduces bandwidth)
 parallel 3D FFT for charge:
    minimum data exchange during FFTs selected (reduces bandwidth)

 Broyden mixing: mesh for mixing (old mesh)
   NGX = 17   NGY = 17   NGZ = 11
  (NGX  = 56   NGY  = 56   NGZ  = 32)
  gives a total of   3179 points

 initial charge density was supplied:
 charge density of overlapping atoms calculated
 number of electron      38.0000000 magnetization       0.0000000
 keeping initial charge density in first step

 Maximum index for augmentation-charges          465 (set IRDMAX)

 First call to EWALD:  gamma=   0.463
 Maximum number of real-space cells 2x 2x 3
 Maximum number of reciprocal cells 3x 3x 2

 FEWALD executed in parallel

----------------------------------------- Iteration    1(   1)  ---------------------------------------

 eigenvalue-minimisations  :  4848
 total energy-change (2. order) : 0.4632012E+03  (-0.1869238E+04)
 number of electron      38.0000000 magnetization      -0.0000000
 augmentation part       38.0000000 magnetization      -0.0000000

 Free energy of the ion-electron system (eV)
  alpha Z        PSCENC =       170.09358264
  Ewald energy   TEWEN  =     -2223.73708239
  -1/2 Hartree   DENC   =      -550.14984903
  -exchange  EXHF       =         0.00000000
  -V(xc)+E(xc)   XCENC  =        93.24643219
  PAW double counting   =      2192.87916522    -2155.40356056
  entropy T*S    EENTRO =         0.00232056
  eigenvalues    EBANDS =       380.98495017
  atomic energy  EATOM  =      2555.28521479
  free energy    TOTEN  =       463.20117361 eV

  energy without entropy =      463.19885304  energy(sigma->0) =      463.20040008

[...]

 eigenvalue-minimisations  :  4832
 total energy-change (2. order) :-0.4268000E+03  (-0.4167401E+03)
 number of electron      38.0000000 magnetization      -0.0000000
 augmentation part       38.0000000 magnetization      -0.0000000

[...]

 Broyden mixing:
  rms(total) = 0.40948E+01    rms(broyden)= 0.40946E+01
  rms(prec ) = 0.67668E+01
  weight for this iteration     100.00

[...]

 eigenvalues of (default mixing * dielectric matrix)
  average eigenvalue GAMMA=   0.2845
  0.2845

[...]

 Broyden mixing:
  rms(total) = 0.14197E-01    rms(broyden)= 0.14197E-01
  rms(prec ) = 0.21076E-01
  weight for this iteration     100.00

[...]

 Free energy of the ion-electron system (eV)
  alpha Z        PSCENC =       170.09358264
  Ewald energy   TEWEN  =     -2223.73708239
  -1/2 Hartree   DENC   =      -554.91816755
  -exchange  EXHF       =         0.00000000
  -V(xc)+E(xc)   XCENC  =        96.25011904
  PAW double counting   =      3300.76269468    -3267.66794586
  entropy T*S    EENTRO =         0.00400220
  eigenvalues    EBANDS =      -120.75357179
  atomic energy  EATOM  =      2555.28521479
  free energy    TOTEN  =       -44.68115423 eV

  energy without entropy =      -44.68515644  energy(sigma->0) =      -44.68248830

 average (electrostatic) potential at core
  the test charge radii are     0.7215  1.0210
  (the norm of the test charge is              1.0000)
       1 -71.1644       2 -71.1644       3 -71.1644       4 -71.1644       5 -47.2318
       6 -47.2318

 E-fermi :   3.5518     XC(G=0): -12.0758     alpha+bet :-11.4014

 spin component 1

 k-point   1 :       0.0000    0.0000    0.0000
  band No.  band energies     occupation
      1     -15.8818      1.00000
      2     -13.9739      1.00000
      3     -13.5863      1.00000
      4     -13.5639      1.00000
      5      -4.2861      1.00000
      6      -3.1543      1.00000
      7      -2.9488      1.00000
      8      -2.1152      1.00000
      9      -1.7056      1.00000
     10      -0.0291      1.00000
     11       0.0016      1.00000
     12       0.0919      1.00000
     13       0.1028      1.00000
     14       0.4022      1.00000
     15       1.0038      1.00000
     16       2.3066      1.00000
     17       2.9494      1.00009
     18       2.9950      1.00030
     19       3.5894      0.34373
     20       3.7624     -0.02979
     21       4.8885     -0.00000
     22       5.7782     -0.00000
     23       6.7555     -0.00000
     24       7.1590     -0.00000

[...]

 soft charge-density along one line, spin component           1
         0         1         2         3         4         5         6         7         8         9
 total charge-density along one line

[...]

------------------------ aborting loop because EDIFF is reached ----------------------------------------

  FORCE on cell =-STRESS in cart. coord.  units (eV):
  Direction    XX          YY          ZZ          XY          YZ          ZX
  Alpha Z   170.09358   170.09358   170.09358
  Ewald    -827.42602  -827.42602  -568.88716    -0.00000     0.00000     0.00000
  Hartree   150.10315   150.10315   254.79338    -0.00000    -0.00000    -0.00000
  E(xc)    -184.93389  -184.93389  -185.34141     0.00000    -0.00000    -0.00000
  Local      69.91232    69.91232  -270.62898     0.00000    -0.00000     0.00000
  n-local  -131.51412  -131.74896  -125.83738     0.18403    -0.33244     0.07726
  augment    88.88382    88.88382    85.62811    -0.00000    -0.00000     0.00000
  Kinetic   665.42297   664.65524   640.27473    -1.20797     0.41466    -0.81593
  Fock        0.00000     0.00000     0.00000     0.00000     0.00000     0.00000
  Total       0.04054     0.04054     0.09486    -0.00000     0.00000     0.00000
  in kB       1.16109     1.16109     2.71723    -0.00000     0.00000     0.00000

 VOLUME and BASIS-vectors are now :
  energy-cutoff  :      520.00
  volume of cell :       55.93
      direct lattice vectors                 reciprocal lattice vectors
     4.392296703  0.000000000  0.000000000     0.227671323  0.000000000  0.000000000
     0.000000000  4.392296703  0.000000000     0.000000000  0.227671323  0.000000000
     0.000000000  0.000000000  2.899328712     0.000000000  0.000000000  0.344907425

[...]

 FORCES acting on ions
    electron-ion (+dipol)            ewald-force                    non-local-force                 convergence-correction
   0.265E+02 0.265E+02 0.796E-05   -.295E+02 -.295E+02 -.340E-14   0.296E+01 0.296E+01 0.338E-17   0.404E-02 0.404E-02 -.504E-13
   0.265E+02 -.265E+02 0.452E-11   -.295E+02 0.295E+02 -.355E-14   0.296E+01 -.296E+01 0.371E-17   0.404E-02 -.404E-02 -.254E-13
   -.265E+02 0.265E+02 0.578E-12   0.295E+02 -.295E+02 -.315E-14   -.296E+01 0.296E+01 -.297E-17   -.404E-02 0.404E-02 -.328E-13
   -.265E+02 -.265E+02 -.796E-05   0.295E+02 0.295E+02 -.390E-14   -.296E+01 -.296E+01 0.114E-16   -.404E-02 -.404E-02 0.156E-13
   -.412E-14 0.653E-14 0.258E-12   0.127E-13 -.254E-14 0.549E-14   -.178E-22 -.377E-22 0.964E-23   0.520E-13 -.154E-14 -.329E-14
   0.527E-12 0.107E-11 0.173E-13   0.157E-13 0.102E-12 0.676E-14   0.659E-22 -.673E-22 0.101E-22   -.893E-13 -.529E-13 -.788E-14
   0.967E-12 -.151E-11 0.367E-11   -.636E-17 0.142E-13 -.175E-14   -.444E-15 -.444E-15 0.155E-16   -.123E-12 -.143E-12 -.104E-12

 POSITION                                       TOTAL-FORCE (eV/Angst)
      1.34181      1.34181      0.00000        -0.011105     -0.011105     -0.000000
      3.53796      0.85434      1.44966        -0.011105      0.011105      0.000000
      0.85434      3.53796      1.44966         0.011105     -0.011105     -0.000000
      3.05049      3.05049      0.00000         0.011105      0.011105      0.000000
      0.00000      0.00000      0.00000        -0.000000      0.000000      0.000000
      2.19615      2.19615      1.44966        -0.000000      0.000000      0.000000
    total drift:                                0.000000     -0.000000      0.000000

  FREE ENERGIE OF THE ION-ELECTRON SYSTEM (eV)
  free  energy   TOTEN  =       -44.68115423 eV

  energy  without entropy=      -44.68515644  energy(sigma->0) =      -44.68248830

[...]

  free energy =  -0.446814531199E+02  energy without entropy=  -0.446854668048E+02

[...]

 eigenvalues of (default mixing * dielectric matrix)
  average eigenvalue GAMMA=   0.6832
  0.6832

[...]

 d Force = 0.7045929E-05[-0.335E-04, 0.476E-04]  d Energy = 0.3599370E-04-0.289E-04
 d Force = 0.1256214E+00[ 0.125E+00, 0.126E+00]  d Ewald  =-0.8474441E+00 0.973E+00

 Steepest descent step on ions:
 trial-energy change:   -0.000036  1 .order   -0.000019   -0.000146    0.000108
  (g-gl).g = 0.146E-03      g.g   = 0.146E-03  gl.gl    = 0.000E+00
 g(Force)  = 0.476E-04   g(Stress)= 0.988E-04 ortho     = 0.000E+00
 gamma     =   0.00000
 trial     =   1.00000
 opt step  =   0.57559  (harmonic =   0.57559) maximal distance =0.00030837
 next E    =   -44.681196   (d E  =  -0.00004)

 FEWALD executed in parallel

[...]

 eigenvalue-minimisations  :  4912
 total energy-change (2. order) :-0.5614186E-04  (-0.5503081E-03)
 number of electron      38.0000112 magnetization      -0.0000000
 augmentation part        8.6902144 magnetization      -0.0000000

[...]

----------------------------------------- Iteration    3(   2)  ---------------------------------------

 eigenvalue-minimisations  :  3184
 total energy-change (2. order) : 0.5514098E-04  (-0.2354693E-04)
 number of electron      38.0000112 magnetization      -0.0000000
 augmentation part        8.6902144 magnetization      -0.0000000

  free energy =  -0.446812207901E+02  energy without entropy=  -0.446852242358E+02

 average (electrostatic) potential at core
  the test charge radii are     0.7215  1.0210
  (the norm of the test charge is              1.0000)
       1 -71.1665       2 -71.1665       3 -71.1665       4 -71.1665       5 -47.2386
       6 -47.2386

 E-fermi :   3.5465     XC(G=0): -12.0702     alpha+bet :-11.3921

[...]

 spin component 2

[...]

 k-point  50 :       0.5000    0.5000    0.4444
  band No.  band energies     occupation
      1     -14.1009      1.00000
      2     -14.0939      1.00000
      3     -13.9401      1.00000
      4     -13.8346      1.00000
      5      -3.4400      1.00000
      6      -2.9222      1.00000
      7      -2.7026      1.00000
      8      -2.1570      1.00000
      9      -1.9127      1.00000
     10      -1.1744      1.00000
     11      -0.8247      1.00000
     12      -0.6953      1.00000
     13      -0.0427      1.00000
     14       0.0167      1.00000
     15       0.8763      1.00000
     16       2.0559      1.00000
     17       2.5012      1.00000
     18       2.8578      1.00001
     19       2.9329      1.00006
     20       5.2170     -0.00000
     21       5.4376     -0.00000
     22       5.9340     -0.00000
     23       6.3773     -0.00000
     24       6.3782     -0.00000

[...]

 soft charge-density along one line, spin component           2
         0         1         2         3         4         5         6         7         8         9
 total charge-density along one line

------------------------ aborting loop because EDIFF is reached ----------------------------------------

  FORCE on cell =-STRESS in cart. coord.  units (eV):
  Direction    XX          YY          ZZ          XY          YZ          ZX
  Alpha Z   169.95517   169.95517   169.95517
  Ewald    -826.95749  -826.95749  -569.33655    -0.00000    -0.00000    -0.00000
  Hartree   150.17764   150.17764   254.57423    -0.00000    -0.00000    -0.00000
  E(xc)    -184.92992  -184.92992  -185.33140    -0.00000    -0.00000     0.00000
  Local      69.45718    69.45718  -269.93630    -0.00000    -0.00000    -0.00000
  n-local  -131.51448  -131.74834  -125.86614     0.18421    -0.33291     0.07687
  augment    88.86524    88.86524    85.61126    -0.00000    -0.00000     0.00000
  Kinetic   665.24795   664.48437   640.10175    -1.20761     0.41661    -0.81495
  Fock        0.00000     0.00000     0.00000     0.00000     0.00000     0.00000
  Total      -0.19743    -0.19743    -0.22798     0.00000     0.00000     0.00000
  in kB      -5.65066    -5.65066    -6.52496     0.00000     0.00000     0.00000

 VOLUME and BASIS-vectors are now :
  energy-cutoff  :      520.00
  volume of cell :       55.98
      direct lattice vectors                 reciprocal lattice vectors
     4.393120689  0.000000000  0.000000000     0.227628620  0.000000000  0.000000000
    -0.000000000  4.393120689  0.000000000    -0.000000000  0.227628620  0.000000000
     0.000000000  0.000000000  2.900601591     0.000000000  0.000000000  0.344756068

  length of vectors
     4.393120689  4.393120689  2.900601591     0.227628620  0.227628620  0.344756068

 FORCES acting on ions
    electron-ion (+dipol)            ewald-force                    non-local-force                 convergence-correction
   0.263E+02 0.263E+02 0.772E-05   -.293E+02 -.293E+02 -.456E-14   0.295E+01 0.295E+01 0.631E-17   -.753E-02 -.753E-02 0.957E-12
   0.263E+02 -.263E+02 -.975E-12   -.293E+02 0.293E+02 -.303E-14   0.295E+01 -.295E+01 0.495E-17   -.753E-02 0.753E-02 -.377E-12
   -.263E+02 0.263E+02 -.441E-13   0.293E+02 -.293E+02 -.279E-14   -.295E+01 0.295E+01 -.807E-17   0.753E-02 -.753E-02 0.557E-12
   -.263E+02 -.263E+02 -.772E-05   0.293E+02 0.293E+02 -.192E-14   -.295E+01 -.295E+01 -.538E-17   0.753E-02 0.753E-02 0.139E-11
   0.108E-13 0.969E-14 0.259E-12   -.281E-14 0.258E-13 0.267E-14   0.164E-22 0.130E-22 -.276E-23   0.631E-12 0.108E-12 0.210E-12
   0.546E-12 0.108E-11 0.192E-13   -.398E-13 0.168E-13 0.268E-14   -.224E-22 0.193E-22 -.838E-24   0.368E-13 -.395E-12 -.459E-12
   0.330E-12 0.680E-12 -.722E-11   -.142E-13 0.141E-13 -.696E-14   -.444E-15 -.888E-15 -.220E-17   0.582E-12 0.132E-11 0.228E-11

 POSITION                                       TOTAL-FORCE (eV/Angst)
      1.34175      1.34175     -0.00000         0.000485      0.000485      0.000000
      3.53831      0.85481      1.45030         0.000485     -0.000485     -0.000000
      0.85481      3.53831      1.45030        -0.000485      0.000485      0.000000
      3.05137      3.05137      0.00000        -0.000485     -0.000485     -0.000000
     -0.00000      0.00000      0.00000        -0.000000      0.000000     -0.000000
      2.19656      2.19656      1.45030        -0.000000      0.000000     -0.000000
    total drift:                                0.000000      0.000000     -0.000000

  FREE ENERGIE OF THE ION-ELECTRON SYSTEM (eV)
  free  energy   TOTEN  =       -44.68122079 eV

  energy  without entropy=      -44.68522424  energy(sigma->0) =      -44.68255527

 d Force = 0.7550423E-05[ 0.881E-06, 0.142E-04]  d Energy = 0.3056230E-04-0.230E-04
 d Force =-0.5313001E-01[-0.532E-01,-0.530E-01]  d Ewald  = 0.3597822E+00-0.413E+00

 reached required accuracy - stopping structural energy minimisation