 vasp.5.3.3 18Dez12 (build May 12 2016 12:04:25) complex

 executed on             LinuxIFC date 2019.03.14  12:26:37

 INCAR:
 POTCAR:   PAW_PBE Mn 06Sep2000
 POTCAR:   PAW_PBE O_s 07Sep2000
 POTCAR:    PAW_PBE Li 17Jan2003
 POTCAR:   PAW_PBE Mn 06Sep2000

 POTCAR:   PAW_PBE O_s 07Sep2000

 POTCAR:    PAW_PBE Li 17Jan2003

 PAW_PBE Mn 06Sep2000                   :
 PAW_PBE O_s 07Sep2000                  :
  PAW_PBE Li 17Jan2003                  :

 POSCAR: (Li2 Mn15 O30)2  (P1) ~ CONTCAR (VASP)
  positions in direct lattice
  velocities in cartesian coordinates
 exchange correlation table for  LEXCH =        8
   RHO(1)=    0.500       N(1)  =     2000
   RHO(2)=  100.500       N(2)  =     4000

 ion  position               nearest neighbor table
   1  0.072  0.259  0.606-  52 1.91  52 1.91  31 1.92  63 1.94  72 1.96  72 1.96  10 2.94  10 2.95

   2  0.079  0.256  0.471-  51 1.91  51 1.91  32 1.92  64 1.96  71 1.96  71 1.96   9 2.94   9 2.95

[...]

   9  0.952  0.756  0.435-  71 1.94  64 1.94  64 1.94  44 1.96  44 1.96  39 1.97  91 2.80   2 2.94
                             2 2.95
  10  0.958  0.758  0.569-  43 1.92  43 1.92  72 1.93  40 1.94  63 1.95  63 1.95   1 2.94   1 2.95

[...]

  18  0.546  0.752  0.364-  49 1.90  34 1.90  34 1.91  60 1.97  55 2.06  55 2.07  91 2.70  13 3.05
                            13 3.06
  19  0.576  0.756  0.502-  32 1.92  32 1.92  61 1.93  51 1.94  54 1.95  54 1.95  12 2.94  12 2.94

  20  0.570  0.760  0.637-  31 1.92  31 1.92  62 1.93  52 1.94  53 1.95  53 1.95  11 2.95  11 2.95

  21  0.969  0.761  0.705-  77 1.92  77 1.92  42 1.93  42 1.93  86 1.95  41 1.95
  22  0.970  0.762  0.768-  78 1.92  78 1.92  82 1.93  82 1.93  87 1.95  73 1.96
  23  0.969  0.762  0.832-  79 1.93  79 1.93  83 1.93  83 1.93  88 1.96  74 1.96
  24  0.969  0.761  0.896-  84 1.93  84 1.93  80 1.93  80 1.93  75 1.96  89 1.96
  25  0.967  0.759  0.959-  85 1.93  85 1.93  81 1.93  81 1.93  76 1.95  90 1.96
  26  0.468  0.262  0.737-  73 1.93  73 1.93  86 1.93  86 1.93  82 1.94  77 1.96
  27  0.469  0.262  0.800-  74 1.93  74 1.93  87 1.93  87 1.93  83 1.95  78 1.96
  28  0.469  0.262  0.864-  88 1.93  88 1.93  75 1.93  75 1.93  79 1.96  84 1.96
  29  0.469  0.260  0.927-  89 1.93  89 1.93  76 1.93  76 1.93  80 1.95  85 1.96
  30  0.466  0.258  0.991-  90 1.92  90 1.92  33 1.93  33 1.93  50 1.95  81 1.96
  31  0.398  0.259  0.623-  20 1.92  20 1.92   1 1.92
  32  0.411  0.256  0.488-   2 1.92  19 1.92  19 1.92
  33  0.638  0.758  0.005-  30 1.93  30 1.93   3 1.93
  34  0.362  0.250  0.351-  18 1.90  18 1.91   4 1.94
  35  0.664  0.754  0.141-  17 1.92  17 1.92   5 1.93
  36  0.353  0.253  0.216-  16 1.91  16 1.91   6 1.93
  37  0.624  0.752  0.278-  15 1.92  15 1.92   7 1.92
  38  0.345  0.255  0.079-  14 1.92  14 1.92   8 1.94
  39  0.636  0.756  0.416-  13 1.93  13 1.93   9 1.97  91 2.00
  40  0.626  0.757  0.552-  12 1.91  12 1.91  10 1.94
  41  0.648  0.760  0.687-  11 1.91  11 1.91  21 1.95
  42  0.137  0.261  0.691-  11 1.93  21 1.93  21 1.93
  43  0.126  0.258  0.555-  10 1.92  12 1.92  10 1.92
  44  0.113  0.256  0.419-  13 1.93   9 1.96   9 1.96  91 2.44  91 2.45
  45  0.846  0.756  0.072-   8 1.92   8 1.92  14 1.93
  46  0.123  0.252  0.283-   7 1.91   7 1.91  15 1.93
  47  0.853  0.753  0.210-   6 1.92   6 1.92  16 1.93
  48  0.164  0.254  0.148-   5 1.92   5 1.92  17 1.94
  49  0.871  0.751  0.347-  18 1.90   4 1.93   4 1.93
  50  0.150  0.257  0.010-   3 1.91   3 1.91  30 1.95
  51  0.911  0.756  0.485-   2 1.91   2 1.91  19 1.94
  52  0.898  0.759  0.619-   1 1.91   1 1.91  20 1.94
  53  0.735  0.260  0.652-  20 1.95  11 1.95  20 1.95
  54  0.735  0.256  0.517-  12 1.94  19 1.95  19 1.95
  55  0.725  0.257  0.381-  91 1.94  91 1.94  13 1.94  18 2.06  18 2.07
  56  0.292  0.755  0.115-  14 1.95  17 1.95  17 1.95
  57  0.709  0.252  0.243-  15 1.93  16 1.95  16 1.95
  58  0.277  0.752  0.250-  16 1.94  15 1.95  15 1.95
  59  0.717  0.255  0.106-  17 1.94  14 1.95  14 1.95
  60  0.291  0.755  0.387-  91 1.78  13 1.96  13 1.96  18 1.97
  61  0.299  0.757  0.523-  19 1.93  12 1.96  12 1.96
  62  0.303  0.760  0.658-  20 1.93  11 1.96  11 1.96
  63  0.797  0.258  0.584-   1 1.94  10 1.95  10 1.95
  64  0.796  0.255  0.450-   9 1.94   9 1.94   2 1.96
  65  0.215  0.756  0.046-   8 1.95   8 1.95   3 1.96
  66  0.776  0.251  0.311-   4 1.94   7 1.95   7 1.95
  67  0.217  0.753  0.183-   5 1.94   6 1.95   6 1.95
  68  0.791  0.253  0.175-   6 1.94   5 1.95   5 1.95
  69  0.211  0.751  0.318-   4 1.95   4 1.95   7 1.95
  70  0.790  0.257  0.037-   8 1.94   3 1.95   3 1.96
  71  0.236  0.756  0.456-   9 1.94   2 1.96   2 1.96
  72  0.232  0.758  0.590-  10 1.93   1 1.96   1 1.96
  73  0.637  0.762  0.751-  26 1.93  26 1.93  22 1.96
  74  0.637  0.762  0.814-  27 1.93  27 1.93  23 1.96
  75  0.637  0.761  0.878-  28 1.93  28 1.93  24 1.96
  76  0.636  0.760  0.942-  29 1.93  29 1.93  25 1.95
  77  0.801  0.261  0.719-  21 1.92  21 1.92  26 1.96
  78  0.801  0.262  0.782-  22 1.92  22 1.92  27 1.96
  79  0.801  0.262  0.846-  23 1.93  23 1.93  28 1.96
  80  0.801  0.261  0.910-  24 1.93  24 1.93  29 1.95
  81  0.800  0.259  0.974-  25 1.93  25 1.93  30 1.96
  82  0.136  0.262  0.754-  22 1.93  22 1.93  26 1.94
  83  0.137  0.262  0.818-  23 1.93  23 1.93  27 1.95
  84  0.138  0.261  0.881-  24 1.93  24 1.93  28 1.96
  85  0.137  0.259  0.945-  25 1.93  25 1.93  29 1.96
  86  0.304  0.761  0.722-  26 1.93  26 1.93  21 1.95
  87  0.302  0.762  0.786-  27 1.93  27 1.93  22 1.95
  88  0.301  0.762  0.850-  28 1.93  28 1.93  23 1.96
  89  0.301  0.760  0.913-  29 1.93  29 1.93  24 1.96
  90  0.298  0.758  0.977-  30 1.92  30 1.92  25 1.96
  91  0.922  0.756  0.394-  60 1.78  55 1.94  55 1.94  39 2.00  44 2.44  44 2.45  18 2.70  13 2.72
                            13 2.72   9 2.80  13 2.92  13 2.92

  LATTYP: Found a triclinic cell.
 ALAT       =    68.2442568381
 B/A-ratio  =     0.0681874660
 C/A-ratio  =     0.0431358503
 COS(alpha) =     0.0001520751
 COS(beta)  =     0.0002965207
 COS(gamma) =     0.0023940566

  Lattice vectors:

 A1 = (   0.0587205089,   0.0100495490,  68.2442308353)
 A2 = (   4.6533974610,   0.0003461436,   0.0071364639)
 A3 = (   0.0002280287,   2.9437740045,   0.0004391981)

Analysis of symmetry for initial positions (statically):
 Subroutine PRICEL returns:
 Original cell was already a primitive cell.

 Routine SETGRP: Setting up the symmetry group for a
 triclinic supercell.

 Subroutine GETGRP returns: Found  1 space group operations
 (whereof  1 operations were pure point group operations)
 out of a pool of  2 trial point group operations.

The static configuration has the point symmetry C_1 .

Analysis of symmetry for dynamics (positions and initial velocities):
 Subroutine PRICEL returns:
 Original cell was already a primitive cell.

 Routine SETGRP: Setting up the symmetry group for a
 triclinic supercell.

 Subroutine GETGRP returns: Found  1 space group operations
 (whereof  1 operations were pure point group operations)
 out of a pool of  2 trial point group operations.

The dynamic configuration has the point symmetry C_1 .

Analysis of magnetic symmetry:

 Subroutine MAGSYM returns: Found  1 space group operations
 (whereof  1 operations were pure point group operations)
 out of a pool of  1 trial space group operations
 (whereof  1 operations were pure point group operations)
 and found also     1 'primitive' translations

The magnetic configuration has the point symmetry C_1 .

 irot  :   1
 isymop:   1   0   0
           0   1   0
           0   0   1

 gtrans:     0.0000000     0.0000000     0.0000000

 ptrans:     0.0000000     0.0000000     0.0000000
 rotmap:
 (   1->   1)  (   2->   2)  (   3->   3)  (   4->   4)  (   5->   5)
 (   6->   6)  (   7->   7)  (   8->   8)  (   9->   9)  (  10->  10)
 (  11->  11)  (  12->  12)  (  13->  13)  (  14->  14)  (  15->  15)
 (  16->  16)  (  17->  17)  (  18->  18)  (  19->  19)  (  20->  20)
 (  21->  21)  (  22->  22)  (  23->  23)  (  24->  24)  (  25->  25)
 (  26->  26)  (  27->  27)  (  28->  28)  (  29->  29)  (  30->  30)
 (  31->  31)  (  32->  32)  (  33->  33)  (  34->  34)  (  35->  35)
 (  36->  36)  (  37->  37)  (  38->  38)  (  39->  39)  (  40->  40)
 (  41->  41)  (  42->  42)  (  43->  43)  (  44->  44)  (  45->  45)
 (  46->  46)  (  47->  47)  (  48->  48)  (  49->  49)  (  50->  50)
 (  51->  51)  (  52->  52)  (  53->  53)  (  54->  54)  (  55->  55)
 (  56->  56)  (  57->  57)  (  58->  58)  (  59->  59)  (  60->  60)
 (  61->  61)  (  62->  62)  (  63->  63)  (  64->  64)  (  65->  65)
 (  66->  66)  (  67->  67)  (  68->  68)  (  69->  69)  (  70->  70)
 (  71->  71)  (  72->  72)  (  73->  73)  (  74->  74)  (  75->  75)
 (  76->  76)  (  77->  77)  (  78->  78)  (  79->  79)  (  80->  80)
 (  81->  81)  (  82->  82)  (  83->  83)  (  84->  84)  (  85->  85)
 (  86->  86)  (  87->  87)  (  88->  88)  (  89->  89)  (  90->  90)
 (  91->  91)

 KPOINTS: Automatic mesh

Automatic generation of k-mesh.
Space group operators:
 irot       det(A)        alpha          n_x          n_y          n_z        tau_x        tau_y        tau_z
    1     1.000000     0.000000     1.000000     0.000000     0.000000     0.000000     0.000000     0.000000

 Subroutine IBZKPT returns following result:

 Found      4 irreducible k-points:

 Following reciprocal coordinates:
            Coordinates               Weight
  0.000000  0.000000  0.000000      1.000000
  0.500000  0.000000 -0.000000      1.000000
  0.000000  0.333333 -0.000000      2.000000
  0.500000  0.333333 -0.000000      2.000000

 Following cartesian coordinates:
            Coordinates               Weight
  0.000000  0.000000  0.000000      1.000000
  0.107449 -0.000008 -0.000092      1.000000
 -0.000008  0.113233 -0.000017      2.000000
  0.107440  0.113225 -0.000109      2.000000

 I would recommend the setting:
   dimension x,y,z NGX =    23 NGY =   14 NGZ =  334
 SYSTEM =  unknown system
 POSCAR =  (Li2 Mn15 O30)2  (P1) ~ CONTCAR (VASP)

 Startparameter for this run:
   NWRITE =      1    write-flag & timer
   PREC   = normal    normal or accurate (medium, high low for compatibility)
   ISTART =      0    job   : 0-new  1-cont  2-samecut
   ICHARG =      2    charge: 1-file 2-atom 10-const
   ISPIN  =      2    spin polarized calculation?
   LNONCOLLINEAR =      F non collinear calculations
   LSORBIT =      F    spin-orbit coupling
   INIWAV =      1    electr: 0-lowe 1-rand  2-diag
   LASPH  =      F    aspherical Exc in radial PAW
   METAGGA=      F    non-selfconsistent MetaGGA calc.

 Electronic Relaxation 1
   ENCUT  =  400.0 eV  29.40 Ry    5.42 a.u.   7.59  4.80111.29*2*pi/ulx,y,z
   ENINI  =  400.0     initial cutoff
   ENAUG  =  500.7 eV  augmentation charge cutoff
   NELM   =     60;   NELMIN=  2; NELMDL= -5     # of ELM steps
   EDIFF  = 0.1E-03   stopping-criterion for ELM
   LREAL  =      F    real-space projection
   NLSPLINE    = F    spline interpolate recip. space projectors
   LCOMPAT=      F    compatible to vasp.4.4
   GGA_COMPAT  = T    GGA compatible to vasp.4.4-vasp.4.6
   LMAXPAW     = -100 max onsite density
   LMAXMIX     =    4 max onsite mixed and CHGCAR
[...]

 FORCES acting on ions
    electron-ion (+dipol)            ewald-force                    non-local-force                 convergence-correction
   -.184E+02 0.385E-01 0.236E+03   0.186E+02 -.384E-01 -.235E+03   -.163E+00 0.695E-04 -.104E+01   0.461E-02 -.508E-04 0.848E-01
   -.160E+02 0.898E-02 0.157E+03   0.164E+02 -.884E-02 -.156E+03   -.379E+00 -.585E-04 -.108E+01   0.911E-02 0.306E-03 0.257E-01
   0.766E+01 0.678E-01 -.359E+03   -.771E+01 -.693E-01 0.358E+03   0.511E-01 0.139E-02 0.872E+00   -.357E-02 0.635E-04 -.289E-01
   -.106E+02 -.371E+00 -.874E+01   0.108E+02 0.366E+00 0.932E+01   -.249E+00 0.411E-02 -.527E+00   0.194E-02 -.692E-03 -.641E-01
   0.146E+02 0.258E-01 -.132E+03   -.146E+02 -.267E-01 0.131E+03   -.606E-01 0.491E-03 0.947E+00   -.857E-02 0.256E-03 -.804E-01
   -.711E+01 0.622E-01 -.168E+03   0.719E+01 -.616E-01 0.169E+03   -.838E-01 -.755E-03 -.857E+00   0.637E-02 0.134E-03 -.924E-01
   0.138E+02 -.772E-01 0.231E+02   -.140E+02 0.736E-01 -.240E+02   0.218E+00 0.315E-02 0.101E+01   -.330E-02 -.494E-03 -.817E-01
   -.155E+02 0.110E+00 -.385E+03   0.155E+02 -.109E+00 0.386E+03   0.710E-01 -.989E-03 -.783E+00   0.130E-01 0.742E-04 -.719E-01
   0.148E+02 0.145E+00 0.177E+03   -.151E+02 -.143E+00 -.177E+03   0.297E+00 -.140E-02 -.116E+00   0.981E-02 0.666E-03 0.706E-01
   0.151E+02 -.254E-01 0.290E+03   -.153E+02 0.256E-01 -.291E+03   0.214E+00 -.290E-03 0.749E+00   -.366E-02 0.289E-04 0.593E-01
   0.149E+02 -.288E-01 0.298E+03   -.150E+02 0.267E-01 -.297E+03   0.500E-01 0.187E-02 -.925E+00   -.480E-02 -.231E-03 0.426E-01
   0.153E+02 -.223E-01 0.191E+03   -.155E+02 0.210E-01 -.190E+03   0.218E+00 0.106E-02 -.101E+01   -.490E-02 0.130E-03 0.378E-01
   0.210E+02 0.431E+00 0.606E+02   -.210E+02 -.423E+00 -.606E+02   0.434E-01 -.685E-02 -.255E+00   -.124E-01 0.141E-02 0.191E+00
   -.951E+01 0.888E-01 -.243E+03   0.949E+01 -.879E-01 0.242E+03   0.177E-01 -.872E-03 0.952E+00   0.626E-02 0.188E-03 -.601E-01
   0.117E+02 0.102E-01 -.888E+02   -.118E+02 -.114E-01 0.897E+02   0.159E+00 0.103E-02 -.829E+00   -.101E-01 -.151E-03 -.107E+00
   -.183E+02 0.450E-01 -.432E+02   0.183E+02 -.442E-01 0.423E+02   -.124E-01 -.817E-03 0.966E+00   0.995E-02 0.179E-05 -.733E-01
   0.116E+02 0.404E-01 -.271E+03   -.115E+02 -.410E-01 0.271E+03   -.339E-01 0.677E-03 -.818E+00   -.982E-02 0.299E-03 -.894E-01
   -.127E+02 -.175E+00 0.108E+03   0.121E+02 0.140E+00 -.109E+03   0.580E+00 0.349E-01 0.135E+01   -.933E-02 0.131E-03 0.590E-01
   -.161E+02 0.270E-01 0.249E+03   0.163E+02 -.259E-01 -.250E+03   -.237E+00 -.130E-02 0.669E+00   0.103E-01 0.147E-03 0.715E-01
   -.118E+02 0.150E-01 0.343E+03   0.120E+02 -.140E-01 -.344E+03   -.197E+00 -.112E-02 0.726E+00   0.114E-01 -.228E-03 0.941E-01
   -.485E-05 -.247E-01 0.309E+03   -.182E-01 0.237E-01 -.309E+03   0.166E-01 0.875E-03 0.109E-03   0.469E-03 -.398E-03 0.528E-01
   -.488E+00 0.313E-02 0.143E+03   0.450E+00 -.400E-02 -.143E+03   0.409E-01 0.683E-03 -.131E-01   -.456E-02 -.465E-03 0.340E-01
   -.133E+00 0.261E-01 -.128E+02   0.123E+00 -.269E-01 0.128E+02   0.117E-01 0.620E-03 -.504E-02   -.292E-02 -.502E-03 0.127E-02
   0.265E+00 0.535E-01 -.163E+03   -.243E+00 -.543E-01 0.163E+03   -.232E-01 0.714E-03 -.604E-02   -.316E-03 -.388E-03 -.189E-01
   0.389E+00 0.781E-01 -.312E+03   -.349E+00 -.788E-01 0.312E+03   -.441E-01 0.578E-03 -.133E-01   0.216E-02 -.159E-03 -.395E-01
   0.718E-01 -.456E-02 0.225E+03   -.221E-01 0.397E-02 -.225E+03   -.525E-01 0.380E-03 -.331E-01   0.260E-02 -.445E-03 0.487E-01
   0.141E+00 0.126E-01 0.638E+02   -.115E+00 -.135E-01 -.638E+02   -.282E-01 0.788E-03 -.477E-02   0.263E-02 -.482E-03 0.155E-01
   0.454E+00 0.367E-01 -.881E+02   -.462E+00 -.377E-01 0.881E+02   0.785E-02 0.793E-03 -.601E-02   -.169E-02 -.402E-03 -.934E-02
   0.793E+00 0.671E-01 -.238E+03   -.823E+00 -.679E-01 0.238E+03   0.317E-01 0.674E-03 -.120E-01   -.616E-02 -.313E-03 -.281E-01
   0.414E+01 0.874E-01 -.386E+03   -.412E+01 -.883E-01 0.386E+03   -.171E-01 0.828E-03 -.734E-01   -.609E-02 -.791E-04 -.447E-01
   0.176E+02 -.179E+00 0.296E+03   -.162E+02 0.248E+00 -.306E+03   -.141E+01 -.694E-01 0.968E+01   -.214E-02 0.115E-03 0.708E-01
   0.114E+02 -.134E+00 0.225E+03   -.838E+01 0.183E+00 -.236E+03   -.303E+01 -.485E-01 0.108E+02   0.151E-02 -.310E-05 0.430E-01
   -.294E+01 -.171E-01 -.396E+03   0.104E+01 0.490E-01 0.406E+03   0.191E+01 -.318E-01 -.105E+02   -.400E-02 -.146E-03 -.352E-01
   0.189E+02 -.708E+00 0.905E+02   -.216E+02 0.131E+01 -.959E+02   0.271E+01 -.609E+00 0.542E+01   -.363E-01 0.816E-04 -.376E-01
   -.338E+02 -.101E-01 -.211E+03   0.378E+02 0.292E-01 0.215E+03   -.399E+01 -.186E-01 -.420E+01   0.599E-02 -.258E-03 -.680E-01
   0.276E+02 0.128E-01 -.444E+02   -.306E+02 -.171E-01 0.380E+02   0.310E+01 0.415E-02 0.645E+01   -.907E-03 0.859E-04 -.587E-01
   -.220E+02 -.111E-01 -.733E+02   0.220E+02 0.256E-01 0.818E+02   -.988E-01 -.151E-01 -.836E+01   0.358E-02 0.603E-05 -.819E-01
   0.360E+02 0.725E-01 -.228E+03   -.410E+02 -.960E-01 0.223E+03   0.506E+01 0.236E-01 0.434E+01   -.702E-03 -.179E-05 -.414E-01
   -.891E+01 0.101E-01 0.433E+02   0.877E+01 -.248E-01 -.334E+02   0.170E+00 0.184E-01 -.100E+02   -.246E-01 -.144E-02 0.102E+00
   -.167E+02 0.688E-01 0.149E+03   0.164E+02 -.120E+00 -.138E+03   0.350E+00 0.513E-01 -.111E+02   -.677E-03 -.149E-03 0.362E-01
   -.361E+02 0.497E-01 0.256E+03   0.381E+02 -.965E-01 -.248E+03   -.199E+01 0.461E-01 -.771E+01   -.743E-03 0.815E-04 0.322E-01
   -.107E+01 -.133E+00 0.337E+03   -.233E+01 0.173E+00 -.349E+03   0.340E+01 -.413E-01 0.114E+02   -.298E-02 0.278E-03 0.393E-01
   -.138E+02 -.140E+00 0.258E+03   0.114E+02 0.191E+00 -.269E+03   0.237E+01 -.511E-01 0.108E+02   -.230E-02 0.546E-05 0.470E-01
   -.194E+02 -.398E-02 0.146E+03   0.175E+02 0.140E-01 -.153E+03   0.186E+01 -.798E-02 0.690E+01   0.971E-02 -.576E-03 0.107E+00
   0.330E+02 -.471E-01 -.309E+03   -.368E+02 0.905E-01 0.314E+03   0.375E+01 -.432E-01 -.461E+01   -.499E-02 -.140E-03 -.532E-01
   -.229E+02 0.636E-01 0.221E+02   0.243E+02 -.950E-01 -.306E+02   -.142E+01 0.300E-01 0.850E+01   0.361E-03 0.399E-03 -.692E-01
   0.296E+02 -.258E-01 -.132E+03   -.319E+02 0.462E-01 0.138E+03   0.226E+01 -.201E-01 -.622E+01   -.208E-02 -.164E-03 -.738E-01
   -.347E+02 0.618E-01 -.131E+03   0.399E+02 -.860E-01 0.127E+03   -.518E+01 0.245E-01 0.410E+01   -.313E-03 -.925E-04 -.549E-01
   0.195E+02 0.169E+00 -.953E+00   -.163E+02 -.334E+00 0.999E+01   -.328E+01 0.163E+00 -.899E+01   0.385E-01 0.664E-03 -.457E-01
   -.398E+02 0.125E+00 -.320E+03   0.428E+02 -.166E+00 0.314E+03   -.305E+01 0.402E-01 0.599E+01   0.313E-02 0.197E-04 -.299E-01
   0.149E+02 0.266E-01 0.115E+03   -.143E+02 -.536E-01 -.104E+03   -.652E+00 0.275E-01 -.115E+02   -.484E-04 -.230E-03 0.384E-01
   0.180E+02 0.468E-01 0.193E+03   -.186E+02 -.914E-01 -.183E+03   0.557E+00 0.444E-01 -.101E+02   0.151E-02 -.428E-04 0.636E-01
   -.182E+03 0.416E-01 0.239E+03   0.216E+03 -.750E-01 -.232E+03   -.337E+02 0.332E-01 -.670E+01   0.359E-02 -.748E-04 0.534E-01
   -.179E+03 0.279E-01 0.151E+03   0.212E+03 -.546E-01 -.144E+03   -.337E+02 0.270E-01 -.728E+01   0.352E-02 -.204E-03 0.473E-01
   -.167E+03 0.104E+01 0.794E+02   0.186E+03 -.157E+01 -.835E+02   -.191E+02 0.535E+00 0.393E+01   0.715E-02 -.139E-02 0.189E+00
   0.189E+03 0.523E-01 -.189E+03   -.223E+03 -.657E-01 0.185E+03   0.340E+02 0.136E-01 0.457E+01   0.154E-02 0.174E-04 -.523E-01
   -.186E+03 -.529E-02 -.878E+02   0.220E+03 0.106E-01 0.933E+02   -.341E+02 -.524E-02 -.537E+01   0.397E-03 -.135E-03 -.746E-01
   0.185E+03 0.228E-02 -.238E+02   -.219E+03 -.335E-02 0.181E+02   0.341E+02 0.516E-03 0.576E+01   0.463E-04 0.195E-03 -.721E-01
   -.188E+03 -.134E-01 -.249E+03   0.222E+03 0.307E-01 0.253E+03   -.341E+02 -.168E-01 -.412E+01   -.275E-02 -.236E-03 -.545E-01
   0.163E+03 -.458E+00 0.126E+03   -.182E+03 0.690E+00 -.135E+03   0.187E+02 -.228E+00 0.845E+01   -.851E-02 -.119E-02 0.196E+00
[...]
   0.147E+02 0.107E-01 0.564E+02   -.125E+02 -.163E-01 -.451E+02   -.217E+01 0.455E-02 -.112E+02   0.165E-02 0.242E-03 0.156E-01
   0.149E+02 -.140E-01 -.751E+02   -.122E+02 0.262E-01 0.864E+02   -.266E+01 -.132E-01 -.113E+02   0.223E-02 0.209E-03 -.786E-02
   0.150E+02 -.354E-01 -.203E+03   -.118E+02 0.645E-01 0.214E+03   -.317E+01 -.299E-01 -.114E+02   0.349E-02 0.125E-03 -.234E-01
   0.143E+02 -.399E-01 -.332E+03   -.106E+02 0.778E-01 0.344E+03   -.372E+01 -.382E-01 -.119E+02   0.170E-02 0.884E-05 -.377E-01
   -.138E+02 -.720E-01 0.188E+03   0.985E+01 0.958E-01 -.200E+03   0.396E+01 -.251E-01 0.115E+02   -.978E-03 0.350E-03 0.300E-01
   -.146E+02 -.587E-02 0.532E+02   0.116E+02 0.895E-02 -.646E+02   0.307E+01 -.429E-02 0.113E+02   -.202E-02 0.331E-03 0.463E-02
   -.151E+02 0.507E-01 -.756E+02   0.127E+02 -.643E-01 0.644E+02   0.235E+01 0.126E-01 0.112E+02   0.345E-03 0.282E-03 -.141E-01
   -.156E+02 0.101E+00 -.204E+03   0.137E+02 -.128E+00 0.193E+03   0.192E+01 0.262E-01 0.110E+02   0.133E-02 0.165E-03 -.305E-01
   0.126E+02 -.124E+00 0.260E+03   -.814E+01 0.164E+00 -.272E+03   -.449E+01 -.408E-01 0.120E+02   -.215E-02 0.389E-03 0.363E-01
   0.147E+02 -.594E-01 0.120E+03   -.114E+02 0.830E-01 -.131E+03   -.336E+01 -.250E-01 0.115E+02   0.127E-02 0.428E-03 0.162E-01
   0.156E+02 0.306E-02 -.114E+02   -.130E+02 0.234E-02 0.577E-01   -.260E+01 -.667E-02 0.113E+02   0.203E-02 0.403E-03 -.476E-02
   0.160E+02 0.558E-01 -.139E+03   -.139E+02 -.662E-01 0.128E+03   -.212E+01 0.949E-02 0.112E+02   0.260E-02 0.292E-03 -.197E-01
   0.177E+02 0.852E-01 -.269E+03   -.158E+02 -.104E+00 0.258E+03   -.193E+01 0.182E-01 0.114E+02   0.557E-02 0.162E-03 -.336E-01
   -.759E+01 -.645E-01 0.183E+02   0.797E+01 0.504E-01 -.191E+02   -.383E+00 0.184E-01 0.758E+00   0.120E-02 -.549E-05 0.247E-01
   0.242E+01 0.230E+00 -.245E+01   0.400E-13 0.262E-12 -.261E-11   -.241E+01 -.239E+00 0.241E+01   -.205E-02 -.197E-02 0.362E-01

 POSITION                                       TOTAL-FORCE (eV/Angst)
      0.37147      0.76720     41.34214         0.005705      0.000189     -0.001073
      0.39723      0.75795     32.15735         0.004992      0.000507     -0.001326
      4.48491      2.22929      1.54886        -0.001137     -0.000014     -0.003514
      0.22182      0.73973     22.71835        -0.004619     -0.001529     -0.003073
      4.51406      2.22055     10.92957        -0.008723      0.000047     -0.008185
      0.20305      0.74706     13.45457         0.006768      0.000081     -0.010405
      4.40700      2.21554     20.21853        -0.008520     -0.000823     -0.002770
      0.18920      0.75451      4.09062         0.009054      0.000081     -0.004150
      4.45752      2.22979     29.68378         0.006462      0.001183      0.007261
      4.49073      2.23693     38.85465        -0.002296      0.000121      0.008054
      2.21827      0.77305     45.97595         0.000312     -0.000342      0.008402
      2.15806      0.76198     36.74725        -0.001074      0.000010      0.005336
      2.11027      0.75797     27.47687         0.006996      0.002062      0.002529
      2.51782      2.22405      6.24256         0.008320      0.000275     -0.006050
      2.08725      0.74508     18.09774        -0.008125     -0.000152     -0.000768
      2.52577      2.21796     15.58686         0.005999      0.000129     -0.006536
      2.19303      0.75025      8.78497        -0.009097      0.000449     -0.011066
      2.56154      2.21810     24.83422        -0.003506      0.000110     -0.001908
      2.71329      2.23211     34.25895         0.006855      0.000096     -0.000705
      2.69319      2.24256     43.45993         0.007124     -0.000275      0.002303
      4.55189      2.24773     48.11823        -0.001131     -0.000437      0.008063
      4.55839      2.25092     52.43562        -0.001450     -0.000527      0.005024
      4.56057      2.25145     56.77201        -0.001865     -0.000483      0.002693
      4.56044      2.24933     61.11599        -0.001594     -0.000369      0.001973
      4.55401      2.24496     65.46007        -0.002045     -0.000201      0.001844
      2.22118      0.77747     50.26945        -0.000183     -0.000534      0.006080
      2.22892      0.77948     54.59862         0.000318     -0.000558      0.003622
      2.23475      0.77864     58.93957        -0.001504     -0.000448      0.002161
      2.23587      0.77530     63.28468        -0.004746     -0.000259      0.001384
      2.22493      0.77026     67.62502        -0.007269     -0.000046     -0.000387
      1.89196      0.76990     42.51973         0.012376     -0.000176      0.000258
      1.94254      0.75973     33.29135         0.009505      0.000273     -0.001719
      2.96783      2.23128      0.34706        -0.005642      0.000032     -0.002937
      1.70370      0.73907     23.97674        -0.005626     -0.003111      0.001486
      3.09459      2.22162      9.62521        -0.023778      0.000392      0.002334
      1.66088      0.74629     14.72408         0.019594      0.000105     -0.021149
      2.91465      2.21662     19.00686        -0.019203     -0.000380      0.006806
      1.61336      0.75258      5.41055         0.021637      0.000258     -0.025251
      2.98680      2.23005     28.37456         0.007753      0.002401     -0.004072
      2.94373      2.23423     37.68288        -0.006840      0.000145      0.011122
      3.05507      2.24527     46.86152        -0.003370     -0.000483      0.013222
      0.67653      0.77499     47.13226        -0.002981     -0.000598      0.004349
      0.61462      0.76400     37.89148        -0.005943      0.000084     -0.003689
      0.55161      0.75754     28.61715         0.013776      0.001610      0.002437
      3.94624      2.22611      4.94374         0.020667      0.000201      0.002547
      0.58666      0.74372     19.31943        -0.015144     -0.000784     -0.010877
      3.98714      2.21898     14.33103         0.020530      0.000249      0.007250
      0.76840      0.74854     10.09911        -0.021955      0.000390     -0.027754
      4.07203      2.21354     23.68520        -0.008443     -0.001366      0.002430
      0.69665      0.75752      0.67666        -0.006673      0.000056     -0.008893
      4.27065      2.23037     33.10157         0.006127      0.000400      0.006698
      4.22095      2.23986     42.26550         0.011386     -0.000071      0.014358
      3.45933      0.77078     44.47663         0.003615     -0.000187      0.011532
      3.44961      0.76018     35.29903         0.003614      0.000247      0.008482
      3.39452      0.76032     26.02023         0.000851      0.004948     -0.003092
      1.36503      2.22257      7.81295        -0.001246      0.000313     -0.021949
      3.31388      0.74563     16.60112         0.000500      0.000028      0.005395
      1.30453      2.21718     17.09137        -0.002888     -0.000241     -0.010947
      3.34409      0.75150      7.22511         0.001918      0.000405     -0.002369
      1.37982      2.22764     26.40766         0.008573      0.002641      0.013287
[...]
      3.77216      0.77594     49.07151        -0.000549     -0.000628      0.009128
      3.77465      0.77895     53.39602        -0.001331     -0.000756      0.006948
      3.77864      0.77921     57.73863        -0.002424     -0.000720      0.004553
      3.78101      0.77685     62.08860        -0.004640     -0.000522      0.000415
      3.78093      0.77231     66.43933        -0.006913     -0.000202     -0.004285
      0.67653      0.77842     51.44992         0.000085     -0.000776      0.008567
      0.68514      0.77921     55.79367        -0.000506     -0.000756      0.005882
      0.69097      0.77731     60.14443        -0.001775     -0.000598      0.002686
      0.69059      0.77313     64.49399        -0.003275     -0.000276     -0.000448
      1.45539      2.24900     49.28110        -0.001415     -0.000735      0.007761
      1.45084      2.25127     53.62218        -0.001330     -0.000822      0.006836
      1.45181      2.25069     57.97000        -0.002401     -0.000746      0.003904
      1.45104      2.24755     62.32020        -0.005857     -0.000490      0.001078
      1.44041      2.24258     66.66946        -0.006253     -0.000182     -0.002994
      4.31485      2.23178     26.88318        -0.001257      0.004365     -0.010836
    total drift:                                0.002078     -0.010878     -0.006385

  FREE ENERGIE OF THE ION-ELECTRON SYSTEM (eV)
  free  energy   TOTEN  =      -640.93176608 eV

  energy  without entropy=     -641.00958285  energy(sigma->0) =     -640.95770500

 d Force = 0.2071072E-03[ 0.165E-03, 0.249E-03]  d Energy = 0.1670813E-03 0.400E-04
 d Force = 0.2212632E+00[ 0.220E+00, 0.222E+00]  d Ewald  =-0.4124462E+01 0.435E+01

 reached required accuracy - stopping structural energy minimisation