 vasp.5.3.3 18Dez12 (build May 12 2016 12:04:25) complex

 executed on             LinuxIFC date 2019.06.08  13:56:27

 INCAR:
 POTCAR:    PAW_PBE Mn 06Sep2000
 POTCAR:    PAW_PBE O 08Apr2002
 POTCAR:    PAW_PBE Mn 06Sep2000

 POTCAR:    PAW_PBE O 08Apr2002

  PAW_PBE Mn 06Sep2000                  :
  PAW_PBE O 08Apr2002                   :

 POSCAR: (Mn O2)4  (Pnma) ~  (Pearson #541374)_1
  positions in direct lattice
  velocities in cartesian coordinates
 exchange correlation table for  LEXCH =       14
   RHO(1)=    0.500       N(1)  =     2000
   RHO(2)=  100.500       N(2)  =     4000

 ion  position               nearest neighbor table
   1  0.135  0.250  0.033-   5 1.89   8 1.89   8 1.89  12 1.91  12 1.91  10 1.92   3 2.90   3 2.90

   2  0.635  0.250  0.467-   6 1.89   7 1.89   7 1.89  11 1.91  11 1.91   9 1.92   4 2.90   4 2.90

[...]

   5  0.278  0.250  0.329-   1 1.89   4 1.89   4 1.89
   6  0.778  0.250  0.171-   2 1.89   3 1.89   3 1.89
   7  0.722  0.750  0.671-   3 1.89   2 1.89   2 1.89
   8  0.222  0.750  0.829-   4 1.89   1 1.89   1 1.89
   9  0.467  0.250  0.714-   4 1.91   4 1.91   2 1.92
  10  0.967  0.250  0.786-   3 1.91   3 1.91   1 1.92
  11  0.533  0.750  0.286-   2 1.91   2 1.91   4 1.92
  12  0.033  0.750  0.214-   1 1.91   1 1.91   3 1.92

  LATTYP: Found a simple orthorhombic cell.
 ALAT       =     2.8805238810
 B/A-ratio  =     1.5858649912
 C/A-ratio  =     3.2034534132

  Lattice vectors:

 A1 = (   0.0000000000,   2.8805238810,   0.0000000000)
 A2 = (   0.0000000000,   0.0000000000,  -4.5681219792)
 A3 = (  -9.2276240585,   0.0000000000,   0.0000000000)

Analysis of symmetry for initial positions (statically):
 Subroutine PRICEL returns:
 Original cell was already a primitive cell.

 Routine SETGRP: Setting up the symmetry group for a
 simple orthorhombic supercell.

 Subroutine GETGRP returns: Found  8 space group operations
 (whereof  2 operations were pure point group operations)
 out of a pool of  8 trial point group operations.

The static configuration has the point symmetry S_2 .
 The point group associated with its full space group is D_2h.

Analysis of symmetry for dynamics (positions and initial velocities):
 Subroutine PRICEL returns:
 Original cell was already a primitive cell.

 Routine SETGRP: Setting up the symmetry group for a
 simple orthorhombic supercell.

 Subroutine GETGRP returns: Found  8 space group operations
 (whereof  2 operations were pure point group operations)
 out of a pool of  8 trial point group operations.

The dynamic configuration has the point symmetry S_2 .
 The point group associated with its full space group is D_2h.

Analysis of magnetic symmetry:

 Subroutine MAGSYM returns: Found  8 space group operations
 (whereof  2 operations were pure point group operations)
 out of a pool of  8 trial space group operations
 (whereof  2 operations were pure point group operations)
 and found also     1 'primitive' translations

The magnetic configuration has the point symmetry S_2 .
 The point group associated with its full space group is D_2h.

 irot  :   1
 isymop:   1   0   0
           0   1   0
           0   0   1

 gtrans:     0.0000000     0.0000000     0.0000000

 ptrans:     0.0000000     0.0000000     0.0000000
 rotmap:
 (   1->   1)  (   2->   2)  (   3->   3)  (   4->   4)  (   5->   5)
 (   6->   6)  (   7->   7)  (   8->   8)  (   9->   9)  (  10->  10)
 (  11->  11)  (  12->  12)

[...]

 irot  :   8
 isymop:   1   0   0
           0  -1   0
           0   0   1

 gtrans:     0.0000000     0.5000000     0.0000000

 ptrans:     0.0000000     0.0000000     0.0000000
 rotmap:
 (   1->   1)  (   2->   2)  (   3->   3)  (   4->   4)  (   5->   5)
 (   6->   6)  (   7->   7)  (   8->   8)  (   9->   9)  (  10->  10)
 (  11->  11)  (  12->  12)

 KPOINTS: Automatic mesh

Automatic generation of k-mesh.
Space group operators:
 irot       det(A)        alpha          n_x          n_y          n_z        tau_x        tau_y        tau_z
    1     1.000000     0.000000     1.000000     0.000000     0.000000     0.000000     0.000000     0.000000
    2    -1.000000     0.000000     1.000000     0.000000     0.000000     0.000000     0.000000     0.000000
    3     1.000000   180.000000     1.000000     0.000000     0.000000    -0.500000     0.500000    -0.500000
    4    -1.000000   180.000000     1.000000     0.000000     0.000000    -0.500000     0.500000    -0.500000
    5     1.000000   180.000000     0.000000     0.000000     1.000000    -0.500000     0.000000    -0.500000
    6    -1.000000   180.000000     0.000000     0.000000     1.000000    -0.500000     0.000000    -0.500000
    7     1.000000   180.000000     0.000000     1.000000     0.000000     0.000000     0.500000     0.000000
    8    -1.000000   180.000000     0.000000     1.000000     0.000000     0.000000     0.500000     0.000000

 Subroutine IBZKPT returns following result:

 Found     40 irreducible k-points:

 Following reciprocal coordinates:
            Coordinates               Weight
  0.000000  0.000000  0.000000      1.000000
  0.333333  0.000000  0.000000      2.000000
  0.000000  0.111111  0.000000      2.000000
  0.333333  0.111111  0.000000      4.000000
  0.000000  0.222222  0.000000      2.000000
  0.333333  0.222222  0.000000      4.000000
  0.000000  0.333333  0.000000      2.000000
  0.333333  0.333333  0.000000      4.000000
  0.000000  0.444444  0.000000      2.000000
  0.333333  0.444444  0.000000      4.000000
  0.000000  0.000000  0.166667      2.000000
  0.333333  0.000000  0.166667      4.000000
  0.000000  0.111111  0.166667      4.000000
  0.333333  0.111111  0.166667      8.000000
  0.000000  0.222222  0.166667      4.000000
  0.333333  0.222222  0.166667      8.000000
  0.000000  0.333333  0.166667      4.000000
  0.333333  0.333333  0.166667      8.000000
  0.000000  0.444444  0.166667      4.000000
  0.333333  0.444444  0.166667      8.000000
  0.000000  0.000000  0.333333      2.000000
  0.333333  0.000000  0.333333      4.000000
  0.000000  0.111111  0.333333      4.000000
  0.333333  0.111111  0.333333      8.000000
  0.000000  0.222222  0.333333      4.000000
  0.333333  0.222222  0.333333      8.000000
  0.000000  0.333333  0.333333      4.000000
  0.333333  0.333333  0.333333      8.000000
  0.000000  0.444444  0.333333      4.000000
  0.333333  0.444444  0.333333      8.000000
  0.000000  0.000000  0.500000      1.000000
  0.333333  0.000000  0.500000      2.000000
  0.000000  0.111111  0.500000      2.000000
  0.333333  0.111111  0.500000      4.000000
  0.000000  0.222222  0.500000      2.000000
  0.333333  0.222222  0.500000      4.000000
  0.000000  0.333333  0.500000      2.000000
  0.333333  0.333333  0.500000      4.000000
  0.000000  0.444444  0.500000      2.000000
  0.333333  0.444444  0.500000      4.000000

 Following cartesian coordinates:
            Coordinates               Weight
  0.000000  0.000000  0.000000      1.000000
  0.036123  0.000000  0.000000      2.000000
  0.000000  0.038573  0.000000      2.000000
  0.036123  0.038573  0.000000      4.000000
  0.000000  0.077146  0.000000      2.000000
  0.036123  0.077146  0.000000      4.000000
  0.000000  0.115720  0.000000      2.000000
  0.036123  0.115720  0.000000      4.000000
  0.000000  0.154293  0.000000      2.000000
  0.036123  0.154293  0.000000      4.000000
  0.000000  0.000000  0.036485      2.000000
  0.036123  0.000000  0.036485      4.000000
  0.000000  0.038573  0.036485      4.000000
  0.036123  0.038573  0.036485      8.000000
  0.000000  0.077146  0.036485      4.000000
  0.036123  0.077146  0.036485      8.000000
  0.000000  0.115720  0.036485      4.000000
  0.036123  0.115720  0.036485      8.000000
  0.000000  0.154293  0.036485      4.000000
  0.036123  0.154293  0.036485      8.000000
  0.000000  0.000000  0.072969      2.000000
  0.036123  0.000000  0.072969      4.000000
  0.000000  0.038573  0.072969      4.000000
  0.036123  0.038573  0.072969      8.000000
  0.000000  0.077146  0.072969      4.000000
  0.036123  0.077146  0.072969      8.000000
  0.000000  0.115720  0.072969      4.000000
  0.036123  0.115720  0.072969      8.000000
  0.000000  0.154293  0.072969      4.000000
  0.036123  0.154293  0.072969      8.000000
  0.000000  0.000000  0.109454      1.000000
  0.036123  0.000000  0.109454      2.000000
  0.000000  0.038573  0.109454      2.000000
  0.036123  0.038573  0.109454      4.000000
  0.000000  0.077146  0.109454      2.000000
  0.036123  0.077146  0.109454      4.000000
  0.000000  0.115720  0.109454      2.000000
  0.036123  0.115720  0.109454      4.000000
  0.000000  0.154293  0.109454      2.000000
  0.036123  0.154293  0.109454      4.000000

 TETIRR: Found    477 inequivalent tetrahedra from      972

 I would recommend the setting:
   dimension x,y,z NGX =    51 NGY =   16 NGZ =   25
 SYSTEM =  (Mn O2)4  (Pnma) ~  (Pearson
 POSCAR =  (Mn O2)4  (Pnma) ~  (Pearson #541374)_1

 Startparameter for this run:
   NWRITE =      1    write-flag & timer
   PREC   = normal    normal or accurate (medium, high low for compatibility)
   ISTART =      0    job   : 0-new  1-cont  2-samecut
   ICHARG =     11    charge: 1-file 2-atom 10-const
   ISPIN  =      2    spin polarized calculation?
   LNONCOLLINEAR =      F non collinear calculations
   LSORBIT =      F    spin-orbit coupling
   INIWAV =      1    electr: 0-lowe 1-rand  2-diag
   LASPH  =      F    aspherical Exc in radial PAW
   METAGGA=      F    non-selfconsistent MetaGGA calc.

 Electronic Relaxation 1
   ENCUT  =  520.0 eV  38.22 Ry    6.18 a.u.  17.16  5.36  8.49*2*pi/ulx,y,z
   ENINI  =  520.0     initial cutoff
   ENAUG  =  605.4 eV  augmentation charge cutoff
   NELM   =     60;   NELMIN=  2; NELMDL= -5     # of ELM steps
   EDIFF  = 0.1E-03   stopping-criterion for ELM
   LREAL  =      F    real-space projection
   NLSPLINE    = F    spline interpolate recip. space projectors
   LCOMPAT=      F    compatible to vasp.4.4
   GGA_COMPAT  = T    GGA compatible to vasp.4.4-vasp.4.6
   LMAXPAW     = -100 max onsite density
   LMAXMIX     =    4 max onsite mixed and CHGCAR
   VOSKOWN=      1    Vosko Wilk Nusair interpolation
   ROPT   =    0.00000   0.00000
 Ionic relaxation
   EDIFFG = 0.1E-02   stopping-criterion for IOM
   NSW    =      0    number of steps for IOM
   NBLOCK =      1;   KBLOCK =      1    inner block; outer block
   IBRION =     -1    ionic relax: 0-MD 1-quasi-New 2-CG
   NFREE  =      0    steps in history (QN), initial steepest desc. (CG)
   ISIF   =      2    stress and relaxation
   IWAVPR =     10    prediction:  0-non 1-charg 2-wave 3-comb
   ISYM   =      2    0-nonsym 1-usesym 2-fastsym
   LCORR  =      T    Harris-Foulkes like correction to forces

   POTIM  = 0.5000    time-step for ionic-motion
   TEIN   =    0.0    initial temperature
   TEBEG  =    0.0;   TEEND  =   0.0 temperature during run
   SMASS  =  -3.00    Nose mass-parameter (am)
   estimated Nose-frequenzy (Omega)   =  0.10E-29 period in steps =****** mass=  -0.195E-26a.u.
   SCALEE = 1.0000    scale energy and forces
   NPACO  =    256;   APACO  = 16.0  distance and # of slots for P.C.
   PSTRESS=    0.0 pullay stress

  Mass of Ions in am
[...]
   5.86204646  0.72013097  2.13477980
   7.97938963  2.16039291  4.41884079
   3.36557760  2.16039291  2.43334218
   2.56743047  0.72013097  1.50098887
   7.18124250  0.72013097  0.78307212
   6.66019359  2.16039291  3.06713311
   2.04638156  2.16039291  3.78504986
   4.30802024  0.72013097  3.26061935
   8.92183226  0.72013097  3.59156362
   4.91960382  2.16039291  1.30750263
   0.30579179  2.16039291  0.97655836

 k-point  1 :   0.0000 0.0000 0.0000  plane waves:    3281
 k-point  2 :   0.3333 0.0000 0.0000  plane waves:    3292
 k-point  3 :   0.0000 0.1111 0.0000  plane waves:    3271
 k-point  4 :   0.3333 0.1111 0.0000  plane waves:    3279
 k-point  5 :   0.0000 0.2222 0.0000  plane waves:    3275
 k-point  6 :   0.3333 0.2222 0.0000  plane waves:    3272
 k-point  7 :   0.0000 0.3333 0.0000  plane waves:    3269
 k-point  8 :   0.3333 0.3333 0.0000  plane waves:    3270
 k-point  9 :   0.0000 0.4444 0.0000  plane waves:    3284
 k-point 10 :   0.3333 0.4444 0.0000  plane waves:    3279
 k-point 11 :   0.0000 0.0000 0.1667  plane waves:    3263
 k-point 12 :   0.3333 0.0000 0.1667  plane waves:    3290
 k-point 13 :   0.0000 0.1111 0.1667  plane waves:    3265
 k-point 14 :   0.3333 0.1111 0.1667  plane waves:    3285
 k-point 15 :   0.0000 0.2222 0.1667  plane waves:    3275
 k-point 16 :   0.3333 0.2222 0.1667  plane waves:    3273
 k-point 17 :   0.0000 0.3333 0.1667  plane waves:    3267
 k-point 18 :   0.3333 0.3333 0.1667  plane waves:    3262
 k-point 19 :   0.0000 0.4444 0.1667  plane waves:    3269
 k-point 20 :   0.3333 0.4444 0.1667  plane waves:    3270
 k-point 21 :   0.0000 0.0000 0.3333  plane waves:    3281
 k-point 22 :   0.3333 0.0000 0.3333  plane waves:    3280
 k-point 23 :   0.0000 0.1111 0.3333  plane waves:    3271
 k-point 24 :   0.3333 0.1111 0.3333  plane waves:    3284
 k-point 25 :   0.0000 0.2222 0.3333  plane waves:    3264
 k-point 26 :   0.3333 0.2222 0.3333  plane waves:    3271
 k-point 27 :   0.0000 0.3333 0.3333  plane waves:    3271
 k-point 28 :   0.3333 0.3333 0.3333  plane waves:    3249
 k-point 29 :   0.0000 0.4444 0.3333  plane waves:    3257
 k-point 30 :   0.3333 0.4444 0.3333  plane waves:    3261
 k-point 31 :   0.0000 0.0000 0.5000  plane waves:    3280
 k-point 32 :   0.3333 0.0000 0.5000  plane waves:    3274
 k-point 33 :   0.0000 0.1111 0.5000  plane waves:    3278
 k-point 34 :   0.3333 0.1111 0.5000  plane waves:    3262
 k-point 35 :   0.0000 0.2222 0.5000  plane waves:    3266
 k-point 36 :   0.3333 0.2222 0.5000  plane waves:    3280
 k-point 37 :   0.0000 0.3333 0.5000  plane waves:    3240
 k-point 38 :   0.3333 0.3333 0.5000  plane waves:    3262
 k-point 39 :   0.0000 0.4444 0.5000  plane waves:    3238
 k-point 40 :   0.3333 0.4444 0.5000  plane waves:    3236

 maximum and minimum number of plane-waves per node :       878      771

 maximum number of plane-waves:      3292
 maximum index in each direction:
   IXMAX=   17   IYMAX=    5   IZMAX=    8
   IXMIN=  -17   IYMIN=   -5   IZMIN=   -8

 WARNING: aliasing errors must be expected set NGX to  70 to avoid them
 WARNING: aliasing errors must be expected set NGY to  22 to avoid them
 WARNING: aliasing errors must be expected set NGZ to  34 to avoid them
 aliasing errors are usually negligible using standard VASP settings
 and one can safely disregard these warnings

 parallel 3D FFT for wavefunctions:
    minimum data exchange during FFTs selected (reduces bandwidth)
 parallel 3D FFT for charge:
    minimum data exchange during FFTs selected (reduces bandwidth)

 initial charge density was supplied:
 number of electron      76.0000034 magnetization      -0.0000000
 keeping initial charge density in first step

 Maximum index for augmentation-charges          427 (set IRDMAX)

 First call to EWALD:  gamma=   0.358
 Maximum number of real-space cells 2x 4x 3
 Maximum number of reciprocal cells 5x 2x 3

 FEWALD executed in parallel

----------------------------------------- Iteration    1(   1)  ---------------------------------------

 BZINTS: Fermi energy: 21.449758; 76.000000 electrons
         Band energy: 724.889098;  BLOECHL correction: -0.165512

 eigenvalue-minimisations  :  7680
 total energy-change (2. order) : 0.9410413E+03  (-0.3557043E+04)
 number of electron      76.0000034 magnetization      -0.0000000
 augmentation part       76.0000034 magnetization      -0.0000000

 Free energy of the ion-electron system (eV)
  alpha Z        PSCENC =       313.42212463
  Ewald energy   TEWEN  =     -4121.06621684
  -1/2 Hartree   DENC   =     -1345.41071899
  -exchange  EXHF       =         0.00000000
  -V(xc)+E(xc)   XCENC  =       192.05279583
  PAW double counting   =      6562.51608420    -6495.93231139
  entropy T*S    EENTRO =         0.00000000
  eigenvalues    EBANDS =       724.88909778
  atomic energy  EATOM  =      5110.57042958
  free energy    TOTEN  =       941.04128480 eV

  energy without entropy =      941.04128480  energy(sigma->0) =      941.04128480

[...]

 BZINTS: Fermi energy:  6.443141; 76.000000 electrons
         Band energy:-133.477630;  BLOECHL correction: -0.108131

 eigenvalue-minimisations  :  8480
 total energy-change (2. order) :-0.8583667E+03  (-0.8093369E+03)
 number of electron      76.0000034 magnetization      -0.0000000
 augmentation part       76.0000034 magnetization      -0.0000000

[...]

----------------------------------------- Iteration    1(   8)  ---------------------------------------

[...]

 eigenvalue-minimisations  :  7872
 total energy-change (2. order) :-0.3546150E-04  (-0.3545883E-04)
 number of electron      76.0000034 magnetization      -0.0000000
 augmentation part       76.0000034 magnetization      -0.0000000

 Free energy of the ion-electron system (eV)
  alpha Z        PSCENC =       313.42212463
  Ewald energy   TEWEN  =     -4121.06621684
  -1/2 Hartree   DENC   =     -1345.41071899
  -exchange  EXHF       =         0.00000000
  -V(xc)+E(xc)   XCENC  =       192.05279583
  PAW double counting   =      6562.51608420    -6495.93231139
  entropy T*S    EENTRO =         0.00000000
  eigenvalues    EBANDS =      -305.64754891
  atomic energy  EATOM  =      5110.57042958
  free energy    TOTEN  =       -89.49536189 eV

  energy without entropy =      -89.49536189  energy(sigma->0) =      -89.49536189

 average (electrostatic) potential at core
  the test charge radii are     1.0210  0.7215
  (the norm of the test charge is              1.0000)
       1 -47.9344       2 -47.9344       3 -47.9344       4 -47.9344       5 -71.9886
       6 -71.9886       7 -71.9886       8 -71.9886       9 -72.2053      10 -72.2053
      11 -72.2053      12 -72.2053

 E-fermi :   2.2829     XC(G=0): -11.4410     alpha+bet :-10.5043

 spin component 1

 k-point   1 :       0.0000    0.0000    0.0000
  band No.  band energies     occupation
      1     -16.6880      1.00000
      2     -16.0728      1.00000
      3     -15.7547      1.00000
      4     -14.9243      1.00000
      5     -14.6631      1.00000
      6     -14.5810      1.00000
      7     -14.4971      1.00000
      8     -14.4675      1.00000
      9      -4.7108      1.00000
     10      -4.3353      1.00000
     11      -3.6842      1.00000
     12      -3.6235      1.00000
     13      -3.1836      1.00000
     14      -2.8925      1.00000
     15      -2.8620      1.00000
     16      -2.7581      1.00000
     17      -2.5026      1.00000
     18      -2.1044      1.00000
     19      -2.0654      1.00000
     20      -1.9797      1.00000
     21      -1.6576      1.00000
     22      -0.9848      1.00000
     23      -0.7513      1.00000
     24      -0.6929      1.00000
     25      -0.5102      1.00000
     26      -0.3613      1.00000
     27      -0.2233      1.00000
     28       0.0162      1.00000
     29       0.4863      1.00000
     30       0.5470      1.00000
     31       0.8203      1.00000
     32       0.9661      1.00000
     33       1.0958      1.00000
     34       1.4458      1.00000
     35       1.5397      1.00000
     36       1.8364      1.00000
     37       2.0764      1.00000
     38       2.2476      1.00000
     39       4.1599      0.00000
     40       4.2102      0.00000
     41       4.2335      0.00000
     42       5.0688      0.00000
     43       5.0981      0.00000
     44       5.1034      0.00000
     45       5.5707      0.00000
     46       5.9850      0.00000
     47       6.0113      0.00000
     48       6.2664      0.00000

[...]

 spin component 2

[...]

 k-point  40 :       0.3333    0.4444    0.5000
  band No.  band energies     occupation
      1     -15.1908      1.00000
      2     -15.1807      1.00000
      3     -14.9587      1.00000
      4     -14.9528      1.00000
      5     -14.8040      1.00000
      6     -14.7916      1.00000
      7     -14.7413      1.00000
      8     -14.7094      1.00000
      9      -4.3523      1.00000
     10      -4.2506      1.00000
     11      -3.7492      1.00000
     12      -3.5795      1.00000
     13      -2.9678      1.00000
     14      -2.7802      1.00000
     15      -2.7672      1.00000
     16      -2.6388      1.00000
     17      -2.5212      1.00000
     18      -2.3344      1.00000
     19      -2.0302      1.00000
     20      -1.9605      1.00000
     21      -1.7183      1.00000
     22      -1.5506      1.00000
     23      -1.1644      1.00000
     24      -1.1044      1.00000
     25      -0.7791      1.00000
     26      -0.5957      1.00000
     27      -0.5442      1.00000
     28      -0.4314      1.00000
     29      -0.3455      1.00000
     30       0.0004      1.00000
     31       0.5468      1.00000
     32       0.7252      1.00000
     33       0.7737      1.00000
     34       0.9745      1.00000
     35       1.4120      1.00000
     36       1.4579      1.00000
     37       1.6024      1.00000
     38       1.7053      1.00000
     39       4.0143      0.00000
     40       4.1327      0.00000
     41       4.2953      0.00000
     42       4.5260      0.00000
     43       5.4180      0.00000
     44       5.4215      0.00000
     45       5.5831      0.00000
     46       5.6077      0.00000
     47       5.7811      0.00000
     48       5.8142      0.00000

 soft charge-density along one line, spin component           1
         0         1         2         3         4         5         6         7         8         9
 total charge-density along one line

 soft charge-density along one line, spin component           2
         0         1         2         3         4         5         6         7         8         9
 total charge-density along one line

------------------------ aborting loop because EDIFF is reached ----------------------------------------

 total charge

# of ion     s       p       d       tot
  1        0.365   0.581   4.832   5.778
  2        0.365   0.581   4.831   5.777
  3        0.365   0.581   4.832   5.778
  4        0.365   0.581   4.831   5.777
  5        1.561   3.456   0.000   5.018
  6        1.561   3.458   0.000   5.019
  7        1.561   3.456   0.000   5.018
  8        1.561   3.458   0.000   5.019
  9        1.581   3.388   0.000   4.969
 10        1.581   3.388   0.000   4.970
 11        1.581   3.388   0.000   4.969
 12        1.581   3.388   0.000   4.970
tot       14.030  29.703  19.327  63.060

 magnetization (x)

[...]

  FORCE on cell =-STRESS in cart. coord.  units (eV):
  Direction    XX          YY          ZZ          XY          YZ          ZX
  Alpha Z   313.42212   313.42212   313.42212
  Ewald   -1268.53850  -858.28473 -1994.24810    -0.00000     0.00000    -0.00000
  Hartree   521.25901   726.24095    97.88456    -0.00000    -0.00000    -0.00000
  E(xc)    -369.91789  -370.31477  -369.51660     0.00000     0.00000    -0.00000
  Local    -425.42885 -1016.57846   701.63979    -0.00000     0.00000     0.00000
  n-local  -259.05905  -252.80078  -262.86822     0.00725    -0.04986     0.00530
  augment   175.14132   171.52824   177.66018    -0.00000     0.00000     0.00000
  Kinetic  1313.25549  1286.80420  1335.84296    -0.03392    -0.60655     0.04381
  Fock        0.00000     0.00000     0.00000     0.00000     0.00000     0.00000
  Total       0.13365     0.01678    -0.18331     0.00000    -0.00000     0.00000
  in kB       1.76349     0.22139    -2.41883     0.00000    -0.00000     0.00000

 VOLUME and BASIS-vectors are now :
  energy-cutoff  :      520.00
  volume of cell :      121.42
      direct lattice vectors                 reciprocal lattice vectors
     9.227624058  0.000000000  0.000000000     0.108370258  0.000000000  0.000000000
     0.000000000  2.880523881  0.000000000     0.000000000  0.347159073  0.000000000
     0.000000000  0.000000000  4.568121979     0.000000000  0.000000000  0.218908340

  length of vectors
     9.227624058  2.880523881  4.568121979     0.108370258  0.347159073  0.218908340

 FORCES acting on ions
    electron-ion (+dipol)            ewald-force                    non-local-force                 convergence-correction
   -.462E+02 0.219E-12 -.958E+01   0.470E+02 -.216E-14 0.957E+01   -.786E+00 0.821E-17 -.325E-01   -.712E-01 -.387E-11 0.664E-02
   -.462E+02 0.983E-12 0.958E+01   0.470E+02 -.140E-13 -.957E+01   -.786E+00 -.142E-17 0.325E-01   -.712E-01 0.416E-11 -.664E-02
   0.462E+02 -.106E-11 0.958E+01   -.470E+02 -.163E-13 -.957E+01   0.786E+00 -.704E-17 0.325E-01   0.712E-01 -.392E-11 -.664E-02
   0.462E+02 -.663E-13 -.958E+01   -.470E+02 -.443E-14 0.957E+01   0.786E+00 0.124E-17 -.325E-01   0.712E-01 0.346E-11 0.664E-02
   0.286E+02 -.518E-12 0.403E+02   -.298E+02 -.155E-13 -.447E+02   0.122E+01 -.368E-18 0.441E+01   0.271E-01 -.997E-11 0.642E-02
   0.286E+02 -.677E-11 -.403E+02   -.298E+02 0.146E-13 0.447E+02   0.122E+01 -.860E-18 -.441E+01   0.271E-01 -.523E-11 -.642E-02
   -.286E+02 0.131E-11 -.403E+02   0.298E+02 0.167E-13 0.447E+02   -.122E+01 -.140E-18 -.441E+01   -.271E-01 -.626E-11 -.642E-02
   -.286E+02 -.523E-12 0.403E+02   0.298E+02 -.136E-13 -.447E+02   -.122E+01 0.249E-17 0.441E+01   -.271E-01 -.863E-11 0.642E-02
   -.248E+02 0.159E-11 -.205E+03   0.282E+02 0.186E-13 0.230E+03   -.334E+01 0.452E-19 -.257E+02   0.177E-01 -.166E-10 -.704E-02
   -.248E+02 0.272E-11 0.205E+03   0.282E+02 -.363E-14 -.230E+03   -.334E+01 -.830E-18 0.257E+02   0.177E-01 -.124E-10 0.704E-02
   0.248E+02 0.129E-11 0.205E+03   -.282E+02 -.743E-14 -.230E+03   0.334E+01 -.147E-17 0.257E+02   -.177E-01 -.159E-10 0.704E-02
   0.248E+02 0.113E-12 -.205E+03   -.282E+02 0.148E-13 0.230E+03   0.334E+01 -.622E-18 -.257E+02   -.177E-01 -.156E-10 -.704E-02
   0.394E-11 -.708E-12 0.518E-11   -.533E-13 -.123E-13 -.284E-13   0.444E-15 -.756E-18 -.355E-14   -.269E-10 -.907E-10 -.396E-10

 POSITION                                       TOTAL-FORCE (eV/Angst)
      1.24823      0.72013      0.14928        -0.021415     -0.000000     -0.029471
      5.86205      0.72013      2.13478        -0.021415      0.000000      0.029471
      7.97939      2.16039      4.41884         0.021415     -0.000000      0.029471
      3.36558      2.16039      2.43334         0.021415      0.000000     -0.029471
      2.56743      0.72013      1.50099         0.016315     -0.000000      0.003423
      7.18124      0.72013      0.78307         0.016315     -0.000000     -0.003423
      6.66019      2.16039      3.06713        -0.016315      0.000000     -0.003423
      2.04638      2.16039      3.78505        -0.016315      0.000000      0.003423
      4.30802      0.72013      3.26062         0.008973      0.000000      0.026599
      8.92183      0.72013      3.59156         0.008973     -0.000000     -0.026599
      4.91960      2.16039      1.30750        -0.008973     -0.000000     -0.026599
      0.30579      2.16039      0.97656        -0.008973     -0.000000      0.026599
    total drift:                               -0.000000     -0.000000     -0.000000

  FREE ENERGIE OF THE ION-ELECTRON SYSTEM (eV)
  free  energy   TOTEN  =       -89.49536189 eV

  energy  without entropy=      -89.49536189  energy(sigma->0) =      -89.49536189

 total charge

[...]

 magnetization (x)

# of ion     s       p       d       tot
  1        0.016   0.027   2.990   3.033
  2        0.016   0.027   2.988   3.031
  3       -0.016  -0.027  -2.990  -3.033
  4       -0.016  -0.027  -2.988  -3.031
  5       -0.000   0.000   0.000  -0.000
  6       -0.000  -0.001   0.000  -0.001
  7        0.000  -0.000   0.000   0.000
  8        0.000   0.001   0.000   0.001
  9       -0.001   0.033   0.000   0.032
 10       -0.001   0.032   0.000   0.032
 11        0.001  -0.033   0.000  -0.032
 12        0.001  -0.032   0.000  -0.032
tot        0.000  -0.000   0.000   0.000

 BZINTS: Fermi energy:  2.282936; 76.000000 electrons
         Band energy:-305.647549;  BLOECHL correction:  0.000000