 vasp.5.3.3 18Dez12 (build May 12 2016 12:04:25) complex

 executed on             LinuxIFC date 2019.05.18  12:02:27

 INCAR:
 POTCAR:    PAW_PBE Mn 06Sep2000
 POTCAR:    PAW_PBE O 08Apr2002
 POTCAR:    PAW_PBE Mn 06Sep2000

 POTCAR:    PAW_PBE O 08Apr2002

  PAW_PBE Mn 06Sep2000                  :
  PAW_PBE O 08Apr2002                   :

 POSCAR: (Mn O2)4  (P1) ~ POSCAR_1 (VASP)
  positions in direct lattice
  velocities in cartesian coordinates
 exchange correlation table for  LEXCH =       14
   RHO(1)=    0.500       N(1)  =     2000
   RHO(2)=  100.500       N(2)  =     4000

 ion  position               nearest neighbor table
   1  0.000  0.000  0.000-  10 1.92   9 1.92   8 1.94   7 1.94   6 2.00   5 2.00   4 2.85   4 2.85
                             3 2.95   3 2.95   2 2.95   2 2.95
   2  0.000  0.500  0.000-  12 1.92  11 1.92   6 1.94   5 1.94   8 2.00   7 2.00   3 2.85   3 2.85
                             4 2.95   4 2.95   1 2.95   1 2.95
   3  0.500  0.000  0.000-   6 1.92   5 1.92  12 1.94  11 1.94  10 2.00   9 2.00   2 2.85   2 2.85
                             1 2.95   1 2.95   4 2.95   4 2.95
   4  0.500  0.500  0.000-   8 1.92   7 1.92  10 1.94   9 1.94  12 2.00  11 2.00   1 2.85   1 2.85
                             2 2.95   2 2.95   3 2.95   3 2.95
   5  0.194  0.813  0.140-   3 1.92   2 1.94   1 2.00
   6  0.806  0.187  0.860-   3 1.92   2 1.94   1 2.00
   7  0.194  0.313  0.140-   4 1.92   1 1.94   2 2.00
   8  0.806  0.687  0.860-   4 1.92   1 1.94   2 2.00
   9  0.694  0.813  0.140-   1 1.92   4 1.94   3 2.00
  10  0.306  0.187  0.860-   1 1.92   4 1.94   3 2.00
  11  0.694  0.313  0.140-   2 1.92   3 1.94   4 2.00
  12  0.306  0.687  0.860-   2 1.92   3 1.94   4 2.00

  LATTYP: Found a triclinic cell.
 ALAT       =    15.3805926721
 B/A-ratio  =     0.9828776718
 C/A-ratio  =     1.3104245900
 COS(alpha) =     0.0034550046
 COS(beta)  =     0.5787308293
 COS(gamma) =     0.8162759626

  Lattice vectors:

 A1 = ( -14.5474819000,  -4.9933356900,   0.0000000000)
 A2 = ( -13.3037208000,   0.7493140300,   7.1400644500)
 A3 = (  -8.3901220100, -11.4852994400, -14.2801289000)

Analysis of symmetry for initial positions (statically):
 Subroutine PRICEL returns following result:

[...]

   4 primitive cells build up your supercell.

 Routine SETGRP: Setting up the symmetry group for a
 triclinic supercell.

 Subroutine GETGRP returns: Found  2 space group operations
 (whereof  2 operations were pure point group operations)
 out of a pool of  2 trial point group operations.

The static configuration has the point symmetry S_2 .

Analysis of symmetry for dynamics (positions and initial velocities):
 Subroutine PRICEL returns following result:

  LATTYP: Found a triclinic cell.
 ALAT       =     2.9512999050
 B/A-ratio  =     1.0011520647
 C/A-ratio  =     2.6737552581
 COS(alpha) =     0.0073752884
 COS(beta)  =     0.3636602222
 COS(gamma) =     0.5347949939

  Lattice vectors:

 A1 = (   2.9512999050,   0.0000000000,   0.0000000000)
 A2 = (   1.5801587650,  -2.4966678450,   0.0000000000)
 A3 = (   2.8696623200,   1.7473538150,  -7.1400644500)

   4 primitive cells build up your supercell.

 Routine SETGRP: Setting up the symmetry group for a
 triclinic supercell.

 Subroutine GETGRP returns: Found  2 space group operations
 (whereof  2 operations were pure point group operations)
 out of a pool of  2 trial point group operations.

The dynamic configuration has the point symmetry S_2 .

Analysis of magnetic symmetry:

 Subroutine MAGSYM returns: Found  2 space group operations
 (whereof  2 operations were pure point group operations)
 out of a pool of  2 trial space group operations
 (whereof  2 operations were pure point group operations)
 and found also     4 'primitive' translations

The magnetic configuration has the point symmetry S_2 .

 irot  :   1
 isymop:   1   0   0
           0   1   0
           0   0   1

 gtrans:     0.0000000     0.0000000     0.0000000

 ptrans:     0.0000000     0.0000000     0.0000000
 rotmap:
 (   1->   1)  (   2->   2)  (   3->   3)  (   4->   4)  (   5->   5)
 (   6->   6)  (   7->   7)  (   8->   8)  (   9->   9)  (  10->  10)
 (  11->  11)  (  12->  12)

[...]

 irot  :   2
 isymop:  -1   0   0
           0  -1   0
           0   0  -1

 gtrans:     0.0000000     0.0000000     0.0000000

[...]

 ptrans:     0.5000000     0.5000000     0.0000000
 rotmap:
 (   1->   4)  (   2->   3)  (   3->   2)  (   4->   1)  (   5->  12)
 (   6->  11)  (   7->  10)  (   8->   9)  (   9->   8)  (  10->   7)
 (  11->   6)  (  12->   5)

 KPOINTS: Automatic mesh

Automatic generation of k-mesh.
Space group operators:
 irot       det(A)        alpha          n_x          n_y          n_z        tau_x        tau_y        tau_z
    1     1.000000     0.000000     1.000000     0.000000     0.000000     0.000000     0.000000     0.000000
    2    -1.000000     0.000000     1.000000     0.000000     0.000000     0.000000     0.000000     0.000000

 Subroutine IBZKPT returns following result:

 Found     76 irreducible k-points:

 Following reciprocal coordinates:
            Coordinates               Weight
  0.000000  0.000000  0.000000      1.000000
  0.166667  0.000000 -0.000000      2.000000
  0.333333  0.000000  0.000000      2.000000
  0.500000  0.000000 -0.000000      1.000000
  0.000000  0.166667  0.000000      2.000000
  0.166667  0.166667 -0.000000      2.000000
  0.333333  0.166667 -0.000000      2.000000
  0.500000  0.166667 -0.000000      2.000000
 -0.333333  0.166667  0.000000      2.000000
 -0.166667  0.166667  0.000000      2.000000
  0.000000  0.333333 -0.000000      2.000000
  0.166667  0.333333 -0.000000      2.000000
  0.333333  0.333333 -0.000000      2.000000
  0.500000  0.333333 -0.000000      2.000000
 -0.333333  0.333333 -0.000000      2.000000
 -0.166667  0.333333 -0.000000      2.000000
  0.000000  0.500000 -0.000000      1.000000
  0.166667  0.500000 -0.000000      2.000000
  0.333333  0.500000 -0.000000      2.000000
  0.500000  0.500000 -0.000000      1.000000
  0.000000  0.000000  0.250000      2.000000
  0.166667  0.000000  0.250000      2.000000
  0.333333  0.000000  0.250000      2.000000
  0.500000  0.000000  0.250000      2.000000
 -0.333333 -0.000000  0.250000      2.000000
 -0.166667 -0.000000  0.250000      2.000000
  0.000000  0.166667  0.250000      2.000000
  0.166667  0.166667  0.250000      2.000000
  0.333333  0.166667  0.250000      2.000000
  0.500000  0.166667  0.250000      2.000000
 -0.333333  0.166667  0.250000      2.000000
 -0.166667  0.166667  0.250000      2.000000
  0.000000  0.333333  0.250000      2.000000
  0.166667  0.333333  0.250000      2.000000
  0.333333  0.333333  0.250000      2.000000
  0.500000  0.333333  0.250000      2.000000
 -0.333333  0.333333  0.250000      2.000000
 -0.166667  0.333333  0.250000      2.000000
  0.000000  0.500000  0.250000      2.000000
  0.166667  0.500000  0.250000      2.000000
  0.333333  0.500000  0.250000      2.000000
  0.500000  0.500000  0.250000      2.000000
 -0.333333  0.500000  0.250000      2.000000
 -0.166667  0.500000  0.250000      2.000000
  0.000000 -0.333333  0.250000      2.000000
  0.166667 -0.333333  0.250000      2.000000
  0.333333 -0.333333  0.250000      2.000000
  0.500000 -0.333333  0.250000      2.000000
 -0.333333 -0.333333  0.250000      2.000000
 -0.166667 -0.333333  0.250000      2.000000
  0.000000 -0.166667  0.250000      2.000000
  0.166667 -0.166667  0.250000      2.000000
  0.333333 -0.166667  0.250000      2.000000
  0.500000 -0.166667  0.250000      2.000000
 -0.333333 -0.166667  0.250000      2.000000
 -0.166667 -0.166667  0.250000      2.000000
  0.000000  0.000000  0.500000      1.000000
  0.166667  0.000000  0.500000      2.000000
  0.333333  0.000000  0.500000      2.000000
  0.500000  0.000000  0.500000      1.000000
  0.000000  0.166667  0.500000      2.000000
  0.166667  0.166667  0.500000      2.000000
  0.333333  0.166667  0.500000      2.000000
  0.500000  0.166667  0.500000      2.000000
 -0.333333  0.166667  0.500000      2.000000
 -0.166667  0.166667  0.500000      2.000000
  0.000000  0.333333  0.500000      2.000000
  0.166667  0.333333  0.500000      2.000000
  0.333333  0.333333  0.500000      2.000000
  0.500000  0.333333  0.500000      2.000000
 -0.333333  0.333333  0.500000      2.000000
 -0.166667  0.333333  0.500000      2.000000
  0.000000  0.500000  0.500000      1.000000
  0.166667  0.500000  0.500000      2.000000
  0.333333  0.500000  0.500000      2.000000
  0.500000  0.500000  0.500000      1.000000

 Following cartesian coordinates:
            Coordinates               Weight
  0.000000  0.000000  0.000000      1.000000
  0.028236  0.017871  0.004051      2.000000
  0.056472  0.035742  0.008101      2.000000
  0.084708  0.053613  0.012152      1.000000
  0.000000  0.033378 -0.003503      2.000000
  0.028236  0.051249  0.000548      2.000000
  0.056472  0.069120  0.004598      2.000000
  0.084708  0.086990  0.008649      2.000000
 -0.056472 -0.002364 -0.011604      2.000000
 -0.028236  0.015507 -0.007553      2.000000
  0.000000  0.066756 -0.007006      2.000000
  0.028236  0.084626 -0.002955      2.000000
  0.056472  0.102497  0.001096      2.000000
  0.084708  0.120368  0.005146      2.000000
 -0.056472  0.031014 -0.015107      2.000000
 -0.028236  0.048885 -0.011056      2.000000
  0.000000  0.100133 -0.010509      1.000000
  0.028236  0.118004 -0.006458      2.000000
  0.056472  0.135875 -0.002407      2.000000
  0.084708  0.153746  0.001643      1.000000
  0.000000  0.000000  0.035014      2.000000
  0.028236  0.017871  0.039064      2.000000
  0.056472  0.035742  0.043115      2.000000
  0.084708  0.053613  0.047166      2.000000
 -0.056472 -0.035742  0.026912      2.000000
 -0.028236 -0.017871  0.030963      2.000000
  0.000000  0.033378  0.031511      2.000000
  0.028236  0.051249  0.035561      2.000000
  0.056472  0.069120  0.039612      2.000000
  0.084708  0.086990  0.043663      2.000000
 -0.056472 -0.002364  0.023410      2.000000
 -0.028236  0.015507  0.027460      2.000000
  0.000000  0.066756  0.028008      2.000000
  0.028236  0.084626  0.032059      2.000000
  0.056472  0.102497  0.036109      2.000000
  0.084708  0.120368  0.040160      2.000000
 -0.056472  0.031014  0.019907      2.000000
 -0.028236  0.048885  0.023957      2.000000
  0.000000  0.100133  0.024505      2.000000
  0.028236  0.118004  0.028556      2.000000
  0.056472  0.135875  0.032606      2.000000
  0.084708  0.153746  0.036657      2.000000
 -0.056472  0.064392  0.016404      2.000000
 -0.028236  0.082263  0.020455      2.000000
  0.000000 -0.066756  0.042019      2.000000
  0.028236 -0.048885  0.046070      2.000000
  0.056472 -0.031014  0.050121      2.000000
  0.084708 -0.013143  0.054171      2.000000
 -0.056472 -0.102497  0.033918      2.000000
 -0.028236 -0.084626  0.037969      2.000000
  0.000000 -0.033378  0.038517      2.000000
  0.028236 -0.015507  0.042567      2.000000
  0.056472  0.002364  0.046618      2.000000
  0.084708  0.020235  0.050668      2.000000
 -0.056472 -0.069120  0.030415      2.000000
 -0.028236 -0.051249  0.034466      2.000000
  0.000000  0.000000  0.070027      1.000000
[...]
     27      -3.6644      1.00000
     28      -3.5900      1.00000
     29      -3.5705      1.00000
     30      -3.5623      1.00000
     31      -3.4137      1.00000
     32      -3.4029      1.00000
     33      -3.2599      1.00000
     34      -3.0470      1.00000
     35      -3.0223      1.00000
     36      -2.8728      1.00000
     37      -2.8061      1.00000
     38      -2.7640      1.00001
     39      -1.0618     -0.00000
     40      -0.8965     -0.00000
     41      -0.5209     -0.00000
     42      -0.3737     -0.00000
     43      -0.2146     -0.00000
     44      -0.0151     -0.00000
     45       0.5069     -0.00000
     46       0.5948     -0.00000
     47       0.7770     -0.00000
     48       1.0166     -0.00000

[...]

 soft charge-density along one line, spin component           1
         0         1         2         3         4         5         6         7         8         9
 total charge-density along one line

[...]

------------------------ aborting loop because EDIFF is reached ----------------------------------------

  FORCE on cell =-STRESS in cart. coord.  units (eV):
  Direction    XX          YY          ZZ          XY          YZ          ZX
  Alpha Z   180.83916   180.83916   180.83916
  Ewald    2195.04048  2213.73181 -5343.89970    43.07870    20.93398   -67.98972
  Hartree  3407.76578  3419.86061 -2745.51031    18.66530     7.65762   -24.64731
  E(xc)    -365.84113  -366.00675  -365.51968    -0.30985    -0.14978     0.50118
  Local   -6625.78587 -6657.70763  7020.30675   -60.75679   -29.41002    91.25883
  n-local  -260.74131  -261.04449  -269.21796     0.92852     0.29041    -1.74750
  augment   170.90520   171.48048   176.60521     0.05539     0.31807    -0.08071
  Kinetic  1280.71967  1286.02410  1336.44885     2.49362     0.27388     0.52861
  Fock        0.00000     0.00000     0.00000     0.00000     0.00000     0.00000
  Total     -17.09803   -12.82273    -9.94769     4.15489    -0.08585    -2.17663
  in kB    -130.17283   -97.62357   -75.73499    31.63254    -0.65362   -16.57136

 VOLUME and BASIS-vectors are now :
  energy-cutoff  :      520.00
  volume of cell :      210.44
      direct lattice vectors                 reciprocal lattice vectors
     5.902599810  0.000000000  0.000000000     0.169416873  0.107225139  0.024303628
    -3.160317530  4.993335690  0.000000000     0.000000000  0.200266928 -0.021017012
    -1.498521180  0.749314030  7.140064450     0.000000000  0.000000000  0.140054758

[...]

 FORCES acting on ions
    electron-ion (+dipol)            ewald-force                    non-local-force                 convergence-correction
   0.255E-06 -.103E-06 0.424E-06   -.256E-05 0.103E-05 -.436E-05   -.128E-22 -.364E-22 0.269E-21   0.485E-08 -.216E-08 0.950E-06
   0.255E-06 -.103E-06 0.424E-06   -.256E-05 0.103E-05 -.436E-05   -.413E-23 -.209E-22 0.185E-21   0.485E-08 -.216E-08 0.950E-06
   0.255E-06 -.103E-06 0.424E-06   -.256E-05 0.103E-05 -.436E-05   -.262E-21 -.110E-22 -.245E-21   0.485E-08 -.216E-08 0.950E-06
   0.255E-06 -.103E-06 0.424E-06   -.256E-05 0.103E-05 -.436E-05   0.108E-21 -.645E-22 0.133E-21   0.485E-08 -.216E-08 0.950E-06
   0.705E+01 -.201E+01 -.433E+03   -.853E+01 0.263E+01 0.457E+03   0.120E+01 -.630E+00 -.253E+02   0.841E-03 -.596E-03 0.229E-01
   -.705E+01 0.201E+01 0.433E+03   0.853E+01 -.263E+01 -.457E+03   -.120E+01 0.630E+00 0.253E+02   -.841E-03 0.596E-03 -.229E-01
   0.705E+01 -.201E+01 -.433E+03   -.853E+01 0.263E+01 0.457E+03   0.120E+01 -.630E+00 -.253E+02   0.841E-03 -.600E-03 0.229E-01
   -.705E+01 0.201E+01 0.433E+03   0.853E+01 -.263E+01 -.457E+03   -.120E+01 0.630E+00 0.253E+02   -.841E-03 0.600E-03 -.229E-01
   0.705E+01 -.201E+01 -.433E+03   -.853E+01 0.263E+01 0.457E+03   0.120E+01 -.630E+00 -.253E+02   0.841E-03 -.596E-03 0.229E-01
   -.705E+01 0.201E+01 0.433E+03   0.853E+01 -.263E+01 -.457E+03   -.120E+01 0.630E+00 0.253E+02   -.841E-03 0.596E-03 -.229E-01
   0.705E+01 -.201E+01 -.433E+03   -.853E+01 0.263E+01 0.457E+03   0.120E+01 -.630E+00 -.253E+02   0.841E-03 -.600E-03 0.229E-01
   -.705E+01 0.201E+01 0.433E+03   0.853E+01 -.263E+01 -.457E+03   -.120E+01 0.630E+00 0.253E+02   -.841E-03 0.600E-03 -.229E-01
   0.674E-04 -.344E-04 -.404E-03   0.409E-13 -.711E-14 0.568E-13   -.222E-15 0.000E+00 0.000E+00   -.456E-07 0.252E-07 0.860E-05

 POSITION                                       TOTAL-FORCE (eV/Angst)
      0.00000      0.00000      0.00000         0.000000     -0.000000     -0.000000
     -1.58016      2.49667      0.00000         0.000000     -0.000000     -0.000000
      2.95130      0.00000      0.00000         0.000000     -0.000000     -0.000000
      1.37114      2.49667      0.00000         0.000000     -0.000000     -0.000000
     -1.63276      4.16593      0.99675        -0.272909     -0.010266     -1.213702
      2.87652      1.57672      6.14331         0.272909      0.010266      1.213702
     -0.05260      1.66927      0.99675        -0.272909     -0.010266     -1.213702
      1.29636      4.07338      6.14331         0.272909      0.010266      1.213702
      1.31854      4.16593      0.99675        -0.272909     -0.010266     -1.213702
     -0.07478      1.57672      6.14331         0.272909      0.010266      1.213702
      2.89870      1.66927      0.99675        -0.272909     -0.010266     -1.213702
     -1.65494      4.07338      6.14331         0.272909      0.010266      1.213702
    total drift:                                0.000067     -0.000034     -0.000396

  FREE ENERGIE OF THE ION-ELECTRON SYSTEM (eV)
  free  energy   TOTEN  =       -99.03496807 eV

  energy  without entropy=      -99.05342437  energy(sigma->0) =      -99.04112017

[...]

  free energy =  -0.106977213321E+03  energy without entropy=  -0.106984674358E+03

[...]

 d Force =-0.2849539E+00[-0.114E+01, 0.570E+00]  d Energy =-0.6431102E+00 0.358E+00
 d Force =-0.2219953E+03[-0.239E+03,-0.204E+03]  d Ewald  =-0.2976800E+03 0.757E+02

 Steepest descent step on ions:
 trial-energy change:    0.643110  1 .order    1.071540   -3.008384    5.151465
  (g-gl).g = 0.301E+01      g.g   = 0.301E+01  gl.gl    = 0.000E+00
 g(Force)  = 0.597E+00   g(Stress)= 0.241E+01 ortho     = 0.000E+00
 gamma     =   0.00000
 trial     =   1.00000
 opt step  =   0.44654  (harmonic =   0.36868) maximal distance =0.02614579
 next E    =   -99.744793   (d E  =  -0.70983)

[...]

 d Force = 0.3439491E+00[ 0.114E-01, 0.677E+00]  d Energy = 0.1363306E+01-0.102E+01
 d Force = 0.1357095E+03[ 0.130E+03, 0.142E+03]  d Ewald  = 0.1793673E+03-0.437E+02

[...]

 d Force = 0.3981969E-03[-0.177E-01, 0.185E-01]  d Energy = 0.3977918E-01-0.394E-01
 d Force = 0.1052121E+02[ 0.102E+02, 0.109E+02]  d Ewald  =-0.2267739E+01 0.128E+02

 Conjugate gradient step on ions:
 trial-energy change:   -0.039779  1 .order   -0.040389   -0.129350    0.048573
  (g-gl).g = 0.777E-01      g.g   = 0.144E+00  gl.gl    = 0.301E+01
 g(Force)  = 0.214E-01   g(Stress)= 0.122E+00 ortho     = 0.661E-01
 gamma     =   0.02582
 trial     =   0.88931
 opt step  =   0.64287  (harmonic =   0.64653) maximal distance =0.00691607
 next E    =   -99.801687   (d E  =  -0.04652)

[...]

 d Force = 0.3523706E-02[ 0.209E-02, 0.496E-02]  d Energy = 0.6634247E-02-0.311E-02
 d Force =-0.2752434E+01[-0.278E+01,-0.272E+01]  d Ewald  = 0.9105752E+00-0.366E+01

[...]

 Conjugate gradient step on ions:
 trial-energy change:   -0.008833  1 .order   -0.008949   -0.013700   -0.004197
  (g-gl).g = 0.175E-01      g.g   = 0.163E-01  gl.gl    = 0.144E+00
 g(Force)  = 0.491E-02   g(Stress)= 0.114E-01 ortho     =-0.268E-03
 gamma     =   0.12152
 trial     =   0.84002
 opt step  =   1.21102  (harmonic =   1.21102) maximal distance =0.00453739
 next E    =   -99.811453   (d E  =  -0.00988)

[...]

 d Force = 0.4140508E-03[ 0.223E-03, 0.605E-03]  d Energy = 0.8393720E-03-0.425E-03
 d Force = 0.1844991E+01[ 0.184E+01, 0.185E+01]  d Ewald  = 0.7141046E+00 0.113E+01

[...]

 d Force =-0.7844746E-04[-0.581E-03, 0.424E-03]  d Energy =-0.3016837E-03 0.223E-03
 d Force = 0.5688583E+01[ 0.567E+01, 0.570E+01]  d Ewald  = 0.1274490E+02-0.706E+01

 Conjugate gradient step on ions:
 trial-energy change:    0.000302  1 .order    0.000447   -0.002172    0.003067
  (g-gl).g = 0.229E-02      g.g   = 0.237E-02  gl.gl    = 0.163E-01
 g(Force)  = 0.379E-03   g(Stress)= 0.199E-02 ortho     = 0.148E-04
 gamma     =   0.14043
 trial     =   0.91422
 opt step  =   0.37902  (harmonic =   0.37902) maximal distance =0.00059991
 next E    =   -99.811700   (d E  =  -0.00045)

 FEWALD executed in parallel

[...]

 eigenvalue-minimisations  : 16000
 total energy-change (2. order) : 0.1629733E-03  (-0.5169234E-04)
 number of electron      76.0000174 magnetization       0.0000000
 augmentation part       17.3645131 magnetization       0.0000000

 eigenvalues of (default mixing * dielectric matrix)
  average eigenvalue GAMMA=   1.0250
  1.9624  0.7062  0.4065

[...]

----------------------------------------- Iteration    9(   5)  ---------------------------------------

 eigenvalue-minimisations  :  7792
 total energy-change (2. order) :-0.7129399E-05  (-0.1640331E-04)
 number of electron      76.0000174 magnetization       0.0000000
 augmentation part       17.3645131 magnetization       0.0000000

  free energy =  -0.998116596645E+02  energy without entropy=  -0.998242268062E+02

 average (electrostatic) potential at core
  the test charge radii are     1.0210  0.7215
  (the norm of the test charge is              1.0000)
       1 -51.5587       2 -51.5587       3 -51.5587       4 -51.5587       5 -76.2183
       6 -76.2183       7 -76.2183       8 -76.2183       9 -76.2183      10 -76.2183
      11 -76.2183      12 -76.2183

 E-fermi :  -1.4325     XC(G=0):  -7.8814     alpha+bet : -6.5234

[...]

 spin component 2

[...]

 k-point  76 :       0.5000    0.5000    0.5000
  band No.  band energies     occupation
      1     -19.9995      1.00000
      2     -19.9995      1.00000
      3     -19.1695      1.00000
      4     -19.1695      1.00000
      5     -18.8859      1.00000
      6     -18.8859      1.00000
      7     -18.7160      1.00000
      8     -18.7160      1.00000
      9      -7.1197      1.00000
     10      -7.1197      1.00000
     11      -6.9820      1.00000
     12      -6.9820      1.00000
     13      -6.9427      1.00000
     14      -6.9427      1.00000
     15      -6.2976      1.00000
     16      -6.2976      1.00000
     17      -6.1400      1.00000
     18      -6.1400      1.00000
     19      -5.6657      1.00000
     20      -5.6657      1.00000
     21      -5.2426      1.00000
     22      -5.2426      1.00000
     23      -4.9136      1.00000
     24      -4.9136      1.00000
     25      -4.6527      1.00000
     26      -4.6527      1.00000
     27      -4.0014      1.00000
     28      -4.0014      1.00000
     29      -3.3617      1.00000
     30      -3.3617      1.00000
     31      -2.6724      1.00000
     32      -2.6724      1.00000
     33      -2.2527      1.00000
     34      -2.2527      1.00000
     35      -2.0103      1.00017
     36      -2.0103      1.00017
     37      -1.8218      1.00946
     38      -1.8218      1.00946
     39      -0.2070     -0.00000
     40      -0.2070     -0.00000
     41       0.5332     -0.00000
     42       0.5332     -0.00000
     43       0.5896     -0.00000
     44       0.5896     -0.00000
     45       1.1120     -0.00000
     46       1.1120     -0.00000
     47       1.2135     -0.00000
     48       1.2135     -0.00000

[...]

 soft charge-density along one line, spin component           2
         0         1         2         3         4         5         6         7         8         9
 total charge-density along one line

------------------------ aborting loop because EDIFF is reached ----------------------------------------

  FORCE on cell =-STRESS in cart. coord.  units (eV):
  Direction    XX          YY          ZZ          XY          YZ          ZX
  Alpha Z   194.64267   194.64267   194.64267
  Ewald    2415.56248  2419.95436 -5658.56743    -0.17777   -12.34773   -42.19188
  Hartree  3590.85480  3592.78927 -2959.70028    -0.08027   -10.20954   -34.15443
  E(xc)    -369.40011  -369.45121  -368.76315     0.00084    -0.01505     0.00425
  Local   -7039.55026 -7046.72275  7530.58903     0.29615    20.89264    76.06766
  n-local  -256.74707  -257.33203  -267.18934    -0.01413    -0.21504    -0.04942
  augment   170.40149   170.81087   177.01399    -0.00696     0.32671     0.02768
  Kinetic  1294.44138  1295.32087  1351.81294     0.00428     1.60516     0.28360
  Fock        0.00000     0.00000     0.00000     0.00000     0.00000     0.00000
  Total       0.20537     0.01205    -0.16157     0.02214     0.03717    -0.01253
  in kB       1.68293     0.09877    -1.32401     0.18145     0.30455    -0.10269

 VOLUME and BASIS-vectors are now :
  energy-cutoff  :      520.00
  volume of cell :      195.52
      direct lattice vectors                 reciprocal lattice vectors
     5.670182616  0.116872916 -0.029711124     0.174321979  0.105492621  0.025804607
    -2.937302322  4.852095914  0.006821993    -0.004304980  0.203519938 -0.021004093
    -1.460049503  0.694170796  7.025444003     0.000741401  0.000248510  0.142469284

  length of vectors
     5.671464796  5.671915569  7.209055492     0.205384330  0.204646207  0.142471429

 FORCES acting on ions
    electron-ion (+dipol)            ewald-force                    non-local-force                 convergence-correction
   0.178E-06 -.825E-07 0.532E-06   -.176E-05 0.809E-06 -.534E-05   0.430E-23 0.160E-22 0.361E-22   -.235E-09 -.982E-10 0.304E-08
   0.178E-06 -.825E-07 0.532E-06   -.176E-05 0.809E-06 -.534E-05   0.358E-22 -.714E-23 0.111E-21   -.235E-09 -.976E-10 0.304E-08
   0.178E-06 -.825E-07 0.532E-06   -.176E-05 0.809E-06 -.534E-05   0.430E-22 0.190E-23 -.138E-21   -.234E-09 -.975E-10 0.304E-08
   0.178E-06 -.825E-07 0.532E-06   -.176E-05 0.809E-06 -.534E-05   -.220E-22 -.217E-22 -.339E-22   -.234E-09 -.967E-10 0.304E-08
   -.240E+01 -.927E+00 -.464E+03   0.253E+01 0.108E+01 0.490E+03   -.125E+00 -.153E+00 -.258E+02   -.813E-04 0.666E-04 -.149E-01
   0.240E+01 0.927E+00 0.464E+03   -.253E+01 -.108E+01 -.490E+03   0.125E+00 0.153E+00 0.258E+02   0.813E-04 -.666E-04 0.149E-01
   -.240E+01 -.926E+00 -.464E+03   0.253E+01 0.108E+01 0.490E+03   -.125E+00 -.153E+00 -.258E+02   -.813E-04 0.666E-04 -.149E-01
   0.240E+01 0.926E+00 0.464E+03   -.253E+01 -.108E+01 -.490E+03   0.125E+00 0.153E+00 0.258E+02   0.813E-04 -.666E-04 0.149E-01
   -.240E+01 -.927E+00 -.464E+03   0.253E+01 0.108E+01 0.490E+03   -.125E+00 -.153E+00 -.258E+02   -.813E-04 0.666E-04 -.149E-01
   0.240E+01 0.927E+00 0.464E+03   -.253E+01 -.108E+01 -.490E+03   0.125E+00 0.153E+00 0.258E+02   0.813E-04 -.666E-04 0.149E-01
   -.240E+01 -.926E+00 -.464E+03   0.253E+01 0.108E+01 0.490E+03   -.125E+00 -.153E+00 -.258E+02   -.813E-04 0.666E-04 -.149E-01
   0.240E+01 0.926E+00 0.464E+03   -.253E+01 -.108E+01 -.490E+03   0.125E+00 0.153E+00 0.258E+02   0.813E-04 -.666E-04 0.149E-01
   0.668E-04 -.318E-04 -.403E-03   -.258E-13 0.195E-13 0.114E-12   0.111E-15 0.278E-16 0.213E-13   -.528E-08 0.158E-08 0.276E-07

 POSITION                                       TOTAL-FORCE (eV/Angst)
     -0.00000     -0.00000     -0.00000         0.000000     -0.000000     -0.000000
     -1.46865      2.42605      0.00341         0.000000     -0.000000     -0.000000
      2.83509      0.05844     -0.01486         0.000000      0.000000     -0.000000
      1.36644      2.48448     -0.01144         0.000000     -0.000000     -0.000000
     -1.49780      4.06294      0.96033         0.000562      0.003996     -0.002380
      2.77063      1.60020      6.04223        -0.000562     -0.003996      0.002380
     -0.02915      1.63689      0.95692         0.000562      0.003996     -0.002380
      1.30198      4.02625      6.04564        -0.000562     -0.003996      0.002380
      1.33729      4.12137      0.94547         0.000562      0.003996     -0.002380
     -0.06446      1.54177      6.05708        -0.000562     -0.003996      0.002380
      2.80594      1.69533      0.94206         0.000562      0.003996     -0.002380
     -1.53311      3.96781      6.06049        -0.000562     -0.003996      0.002380
    total drift:                                0.000067     -0.000032     -0.000403

  FREE ENERGIE OF THE ION-ELECTRON SYSTEM (eV)
  free  energy   TOTEN  =       -99.81165966 eV

  energy  without entropy=      -99.82422681  energy(sigma->0) =      -99.81584871

 d Force = 0.1780653E-03[ 0.166E-04, 0.340E-03]  d Energy = 0.7117166E-03-0.534E-03
 d Force =-0.3323741E+01[-0.333E+01,-0.332E+01]  d Ewald  =-0.7448912E+01 0.413E+01

 reached required accuracy - stopping structural energy minimisation