 vasp.5.3.3 18Dez12 (build May 12 2016 12:04:25) complex

 executed on             LinuxIFC date 2019.05.19  16:29:59

 INCAR:
 POTCAR:    PAW_PBE Mn 06Sep2000
 POTCAR:    PAW_PBE O 08Apr2002
 POTCAR:    PAW_PBE Mn 06Sep2000

 POTCAR:    PAW_PBE O 08Apr2002

  PAW_PBE Mn 06Sep2000                  :
  PAW_PBE O 08Apr2002                   :

 POSCAR: (Mn O2)16  (P1) ~ POSCAR_9 0 0 1  surfac
  positions in direct lattice
  velocities in cartesian coordinates
 exchange correlation table for  LEXCH =       14
   RHO(1)=    0.500       N(1)  =     2000
   RHO(2)=  100.500       N(2)  =     4000

 ion  position               nearest neighbor table
   1  0.000  0.103  0.000-  41 1.86  47 1.95  47 1.95  15 2.94  15 2.95
   2  0.000  0.500  0.000-  19 1.86  42 1.86  21 1.95  48 1.95  48 1.95  21 1.95  16 2.94   3 2.94
                            16 2.95   3 2.95
   3  0.500  0.450  0.875-  21 1.86  23 1.86  19 1.95  17 1.95  19 1.95  17 1.95   2 2.94   5 2.94
                             2 2.95   5 2.95
   4  0.497  0.849  0.879-  22 1.59  20 1.79  20 1.80  18 1.96  18 1.97  24 2.07   6 3.00   6 3.01

   5  0.000  0.401  0.750-  17 1.86  27 1.86  23 1.95  29 1.95  23 1.95  29 1.95   7 2.94   3 2.94
                             7 2.95   3 2.95
   6  0.999  0.797  0.752-  24 1.86  24 1.86  18 1.87  30 1.91  30 1.92  28 1.92   8 2.91   8 2.92
                             4 3.00   4 3.01
   7  0.500  0.351  0.625-  29 1.86  31 1.86  27 1.95  25 1.95  27 1.95  25 1.95   5 2.94   9 2.94
                             5 2.95   9 2.95
   8  0.500  0.749  0.625-  26 1.90  28 1.90  28 1.90  26 1.90  30 1.93  32 1.93   6 2.91   6 2.92
                            10 2.93  10 2.95
   9  0.000  0.301  0.500-  25 1.86  35 1.86  37 1.95  31 1.95  37 1.95  31 1.95  11 2.94   7 2.94
                            11 2.95   7 2.95
  10  0.000  0.699  0.500-  32 1.90  38 1.90  32 1.90  38 1.91  26 1.94  36 1.94   8 2.93  12 2.94
                             8 2.95  12 2.96
  11  0.500  0.252  0.375-  39 1.86  37 1.86  35 1.95  33 1.95  35 1.95  33 1.95   9 2.94  13 2.94
                             9 2.95  13 2.95
  12  0.500  0.649  0.372-  34 1.90  36 1.90  34 1.90  36 1.91  38 1.93  40 1.95  10 2.94  14 2.95
                            10 2.96  14 2.96
  13  0.000  0.202  0.250-  33 1.86  43 1.86  45 1.95  39 1.95  45 1.95  39 1.95  15 2.94  11 2.94
                            15 2.95  11 2.95
  14  0.000  0.599  0.250-  44 1.86  40 1.89  40 1.89  46 1.95  34 1.95  46 1.95  16 2.94  12 2.95
                            16 2.95  12 2.96
  15  0.500  0.152  0.125-  45 1.86  47 1.86  43 1.95  41 1.95  43 1.95  41 1.95  13 2.94   1 2.94
                            13 2.95   1 2.95
  16  0.500  0.550  0.125-  48 1.86  46 1.86  42 1.95  44 1.95  42 1.95  44 1.95   2 2.94  14 2.94
                             2 2.95  14 2.95
  17  0.005  0.438  0.708-   5 1.86   3 1.95   3 1.95
  18  0.002  0.835  0.712-   6 1.87   4 1.96   4 1.97
  19  0.995  0.462  0.042-   2 1.86   3 1.95   3 1.95
  20  0.990  0.849  0.032-   4 1.79   4 1.80
  21  0.505  0.488  0.833-   3 1.86   2 1.95   2 1.95
  22  0.500  0.878  0.789-   4 1.59
  23  0.495  0.413  0.917-   3 1.86   5 1.95   5 1.95
  24  0.492  0.806  0.908-   6 1.86   6 1.86   4 2.07
  25  0.005  0.339  0.458-   9 1.86   7 1.95   7 1.95
  26  0.006  0.738  0.463-   8 1.90   8 1.90  10 1.94
  27  0.995  0.363  0.792-   5 1.86   7 1.95   7 1.95
  28  0.994  0.758  0.789-   8 1.90   8 1.90   6 1.92
  29  0.505  0.389  0.583-   7 1.86   5 1.95   5 1.95
  30  0.505  0.788  0.586-   6 1.91   6 1.92   8 1.93
  31  0.495  0.313  0.667-   7 1.86   9 1.95   9 1.95
  32  0.494  0.709  0.662-  10 1.90  10 1.90   8 1.93
  33  0.005  0.240  0.208-  13 1.86  11 1.95  11 1.95
  34  0.006  0.639  0.210-  12 1.90  12 1.90  14 1.95
  35  0.995  0.264  0.542-   9 1.86  11 1.95  11 1.95
  36  0.994  0.660  0.534-  12 1.90  12 1.91  10 1.94
  37  0.505  0.289  0.333-  11 1.86   9 1.95   9 1.95
  38  0.506  0.689  0.338-  10 1.90  10 1.91  12 1.93
  39  0.495  0.214  0.417-  11 1.86  13 1.95  13 1.95
  40  0.494  0.610  0.409-  14 1.89  14 1.89  12 1.95
  41  0.005  0.140  0.958-   1 1.86  15 1.95  15 1.95
  42  0.005  0.538  0.958-   2 1.86  16 1.95  16 1.95
  43  0.995  0.164  0.292-  13 1.86  15 1.95  15 1.95
  44  0.995  0.562  0.292-  14 1.86  16 1.95  16 1.95
  45  0.505  0.190  0.083-  15 1.86  13 1.95  13 1.95
  46  0.505  0.587  0.083-  16 1.86  14 1.95  14 1.95
  47  0.495  0.115  0.167-  15 1.86   1 1.95   1 1.95
  48  0.495  0.512  0.167-  16 1.86   2 1.95   2 1.95

  LATTYP: Found a simple monoclinic cell.
 ALAT       =     7.7917998176
 B/A-ratio  =     6.2445392770
 C/A-ratio  =     1.8919841396
 COS(beta)  =    -0.9840432201

  Lattice vectors:

 A1 = (  -2.9592071200,   0.0000000000,  -7.2079981700)
 A2 = (   0.0000000000, -48.6562000000,   0.0000000000)
 A3 = (   3.0829342400,   0.0000000000,  14.4159963400)

Analysis of symmetry for initial positions (statically):
 Subroutine PRICEL returns:
 Original cell was already a primitive cell.

 Routine SETGRP: Setting up the symmetry group for a
 simple monoclinic supercell.

 Subroutine GETGRP returns: Found  1 space group operations
 (whereof  1 operations were pure point group operations)
 out of a pool of  4 trial point group operations.

The static configuration has the point symmetry C_1 .

Analysis of symmetry for dynamics (positions and initial velocities):
 Subroutine PRICEL returns:
 Original cell was already a primitive cell.

[...]

The dynamic configuration has the point symmetry C_1 .

Analysis of constrained symmetry for selective dynamics:
 Subroutine PRICEL returns:
 Original cell was already a primitive cell.

 Routine SETGRP: Setting up the symmetry group for a
 simple monoclinic supercell.

 Subroutine GETGRP returns: Found  1 space group operations
 (whereof  1 operations were pure point group operations)
 out of a pool of  4 trial point group operations.

The constrained configuration has the point symmetry C_1 .

Analysis of magnetic symmetry:

 Subroutine MAGSYM returns: Found  1 space group operations
 (whereof  1 operations were pure point group operations)
 out of a pool of  1 trial space group operations
 (whereof  1 operations were pure point group operations)
 and found also     1 'primitive' translations

The magnetic configuration has the point symmetry C_1 .

 irot  :   1
 isymop:   1   0   0
           0   1   0
           0   0   1

 gtrans:     0.0000000     0.0000000     0.0000000

 ptrans:     0.0000000     0.0000000     0.0000000
 rotmap:
 (   1->   1)  (   2->   2)  (   3->   3)  (   4->   4)  (   5->   5)
 (   6->   6)  (   7->   7)  (   8->   8)  (   9->   9)  (  10->  10)
 (  11->  11)  (  12->  12)  (  13->  13)  (  14->  14)  (  15->  15)
 (  16->  16)  (  17->  17)  (  18->  18)  (  19->  19)  (  20->  20)
 (  21->  21)  (  22->  22)  (  23->  23)  (  24->  24)  (  25->  25)
 (  26->  26)  (  27->  27)  (  28->  28)  (  29->  29)  (  30->  30)
 (  31->  31)  (  32->  32)  (  33->  33)  (  34->  34)  (  35->  35)
 (  36->  36)  (  37->  37)  (  38->  38)  (  39->  39)  (  40->  40)
 (  41->  41)  (  42->  42)  (  43->  43)  (  44->  44)  (  45->  45)
 (  46->  46)  (  47->  47)  (  48->  48)

 KPOINTS: Automatic mesh

Automatic generation of k-mesh.
Space group operators:
 irot       det(A)        alpha          n_x          n_y          n_z        tau_x        tau_y        tau_z
    1     1.000000     0.000000     1.000000     0.000000     0.000000     0.000000     0.000000     0.000000

 Subroutine IBZKPT returns following result:

 Found     19 irreducible k-points:

 Following reciprocal coordinates:
            Coordinates               Weight
  0.000000  0.000000  0.000000      1.000000
  0.111111  0.000000 -0.000000      2.000000
  0.222222  0.000000 -0.000000      2.000000
  0.333333  0.000000 -0.000000      2.000000
  0.444444  0.000000 -0.000000      2.000000
  0.000000  0.000000  0.250000      2.000000
  0.111111  0.000000  0.250000      2.000000
  0.222222  0.000000  0.250000      2.000000
  0.333333  0.000000  0.250000      2.000000
  0.444444  0.000000  0.250000      2.000000
 -0.444444  0.000000  0.250000      2.000000
 -0.333333  0.000000  0.250000      2.000000
 -0.222222  0.000000  0.250000      2.000000
 -0.111111  0.000000  0.250000      2.000000
  0.000000  0.000000  0.500000      1.000000
  0.111111  0.000000  0.500000      2.000000
  0.222222  0.000000  0.500000      2.000000
  0.333333  0.000000  0.500000      2.000000
  0.444444  0.000000  0.500000      2.000000

 Following cartesian coordinates:
            Coordinates               Weight
  0.000000  0.000000  0.000000      1.000000
  0.039186  0.000000 -0.000673      2.000000
  0.078372  0.000000 -0.001345      2.000000
  0.117558  0.000000 -0.002018      2.000000
  0.156744  0.000000 -0.002691      2.000000
  0.000000  0.000000  0.034684      2.000000
  0.039186  0.000000  0.034011      2.000000
  0.078372  0.000000  0.033338      2.000000
  0.117558  0.000000  0.032666      2.000000
  0.156744  0.000000  0.031993      2.000000
 -0.156744  0.000000  0.037374      2.000000
 -0.117558  0.000000  0.036702      2.000000
 -0.078372  0.000000  0.036029      2.000000
 -0.039186  0.000000  0.035356      2.000000
  0.000000  0.000000  0.069367      1.000000
  0.039186  0.000000  0.068695      2.000000
  0.078372  0.000000  0.068022      2.000000
  0.117558  0.000000  0.067349      2.000000
  0.156744  0.000000  0.066677      2.000000

 TETIRR: Found    106 inequivalent tetrahedra from      216

 I would recommend the setting:
   dimension x,y,z NGX =    16 NGY =  271 NGZ =   40
 SYSTEM =  (Mn O2)16  (P1) ~ POSCAR_9 0 0 1  surfa
 POSCAR =  (Mn O2)16  (P1) ~ POSCAR_9 0 0 1  surfac

 Startparameter for this run:
   NWRITE =      1    write-flag & timer
   PREC   = normal    normal or accurate (medium, high low for compatibility)
   ISTART =      0    job   : 0-new  1-cont  2-samecut
   ICHARG =      2    charge: 1-file 2-atom 10-const
   ISPIN  =      2    spin polarized calculation?
   LNONCOLLINEAR =      F non collinear calculations
   LSORBIT =      F    spin-orbit coupling
   INIWAV =      1    electr: 0-lowe 1-rand  2-diag
   LASPH  =      F    aspherical Exc in radial PAW
   METAGGA=      F    non-selfconsistent MetaGGA calc.

 Electronic Relaxation 1
   ENCUT  =  520.0 eV  38.22 Ry    6.18 a.u.   5.27 90.47 13.40*2*pi/ulx,y,z
   ENINI  =  520.0     initial cutoff
   ENAUG  =  605.4 eV  augmentation charge cutoff
   NELM   =     60;   NELMIN=  2; NELMDL= -5     # of ELM steps
   EDIFF  = 0.1E-03   stopping-criterion for ELM
   LREAL  =      F    real-space projection
   NLSPLINE    = F    spline interpolate recip. space projectors
   LCOMPAT=      F    compatible to vasp.4.4
   GGA_COMPAT  = T    GGA compatible to vasp.4.4-vasp.4.6
   LMAXPAW     = -100 max onsite density
   LMAXMIX     =    2 max onsite mixed and CHGCAR
   VOSKOWN=      1    Vosko Wilk Nusair interpolation
   ROPT   =    0.00000   0.00000
 Ionic relaxation
   EDIFFG = 0.1E-02   stopping-criterion for IOM
   NSW    =      0    number of steps for IOM
   NBLOCK =      1;   KBLOCK =      1    inner block; outer block
[...]
     45     -10.5628      1.00000
     46     -10.4523      1.00000
     47     -10.3605      1.00000
     48     -10.2441      1.00000
     49     -10.1559      1.00000
     50     -10.0934      1.00000
     51      -9.8176      1.00000
     52      -9.7586      1.00000
     53      -9.6274      1.00000
     54      -9.5716      1.00000
     55      -9.4641      1.00000
     56      -9.3104      1.00000
     57      -9.3068      1.00000
     58      -9.2150      1.00000
     59      -9.1272      1.00000
     60      -9.1087      1.00000
[...]
    170       0.5465      0.00000
    171       0.6621      0.00000
    172       0.9462      0.00000
    173       1.0691      0.00000
    174       1.4374      0.00000
    175       1.6328      0.00000
    176       1.6930      0.00000
    177       1.8329      0.00000
    178       2.1043      0.00000
    179       2.2438      0.00000
    180       2.3437      0.00000
    181       2.4101      0.00000
    182       2.5956      0.00000
    183       2.8371      0.00000
    184       3.0698      0.00000

[...]

 spin component 2

[...]

 k-point  19 :       0.4444    0.0000    0.5000
  band No.  band energies     occupation
      1     -24.7362      1.00000
      2     -24.4389      1.00000
      3     -24.1905      1.00000
      4     -24.1549      1.00000
      5     -23.9758      1.00000
      6     -23.8641      1.00000
      7     -23.4411      1.00000
      8     -23.3916      1.00000
      9     -23.3435      1.00000
     10     -23.2835      1.00000
     11     -23.0222      1.00000
     12     -22.8126      1.00000
     13     -22.7784      1.00000
     14     -22.3189      1.00000
     15     -22.2654      1.00000
     16     -20.9999      1.00000
     17     -19.7304      1.00000
     18     -18.3392      1.00000
     19     -17.4138      1.00000
     20     -16.7953      1.00000
     21     -16.6965      1.00000
     22     -16.5773      1.00000
     23     -16.4536      1.00000
     24     -16.0693      1.00000
     25     -15.3799      1.00000
     26     -14.8463      1.00000
     27     -14.1863      1.00000
     28     -13.7317      1.00000
     29     -13.6440      1.00000
     30     -13.4922      1.00000
     31     -13.4855      1.00000
     32     -13.4119      1.00000
     33     -13.2654      1.00000
     34     -13.1291      1.00000
     35     -12.4717      1.00000
     36     -12.3346      1.00000
     37     -12.2994      1.00000
     38     -12.2277      1.00000
     39     -11.9551      1.00000
     40     -11.8086      1.00000
     41     -11.7376      1.00000
     42     -11.4909      1.00000
     43     -11.3534      1.00000
     44     -11.3034      1.00000
     45     -11.2815      1.00000
     46     -11.1622      1.00000
     47     -11.0740      1.00000
     48     -11.0026      1.00000
     49     -10.8247      1.00000
     50     -10.6529      1.00000
     51     -10.6377      1.00000
     52     -10.4824      1.00000
     53     -10.4063      1.00000
     54     -10.3681      1.00000
     55     -10.2299      1.00000
     56     -10.1331      1.00000
     57     -10.0663      1.00000
     58      -9.9982      1.00000
     59      -9.7925      1.00000
     60      -9.6681      1.00000
[...]
    170       0.4877      0.00000
    171       0.7226      0.00000
    172       0.8339      0.00000
    173       0.8914      0.00000
    174       1.0227      0.00000
    175       1.0303      0.00000
    176       1.0727      0.00000
    177       1.3610      0.00000
    178       1.4055      0.00000
    179       1.4201      0.00000
    180       1.5180      0.00000
    181       1.8061      0.00000
    182       1.9060      0.00000
    183       1.9629      0.00000
    184       2.1702      0.00000

 soft charge-density along one line, spin component           1
         0         1         2         3         4         5         6         7         8         9
 total charge-density along one line

 soft charge-density along one line, spin component           2
         0         1         2         3         4         5         6         7         8         9
 total charge-density along one line

------------------------ aborting loop because EDIFF is reached ----------------------------------------

  FORCE on cell =-STRESS in cart. coord.  units (eV):
  Direction    XX          YY          ZZ          XY          YZ          ZX
  Alpha Z   612.30704   612.30704   612.30704
  Ewald   79090.45060-66240.01652 53692.04527     0.66266  8597.38367   -23.70573
  Hartree164997.48279************140423.87185     0.03947  8518.95063   -12.13598
  E(xc)   -1509.71310 -1513.59619 -1506.23784     0.06534    -2.25899     0.12450
  Local  ************140110.54015************    -1.32212-16529.55952    34.71753
  n-local   434.79162   508.80395   395.05659    -1.77442    39.13271    -0.47491
  augment   815.52279   782.23808   834.40447     1.38776   -11.78452     0.25759
  Kinetic  5057.32230  5027.51361  5084.37884    -0.05246   -23.66216     1.00003
  Fock        0.00000     0.00000     0.00000     0.00000     0.00000     0.00000
  Total   64451.28187-57950.28753 62073.10475    -0.99377   588.20181    -0.21697
  in kB  103839.52620-93365.56583100007.96881    -1.60109   947.67079    -0.34957

 VOLUME and BASIS-vectors are now :
  energy-cutoff  :      520.00
  volume of cell :      994.44
      direct lattice vectors                 reciprocal lattice vectors
     2.835480000  0.000000000  0.000000000     0.352673974  0.000000000 -0.006053738
     0.000000000 48.656200000  0.000000000     0.000000000  0.020552365  0.000000000
     0.123727120  0.000000000  7.207998170     0.000000000  0.000000000  0.138734774

  length of vectors
     2.835480000 48.656200000  7.209059996     0.352725927  0.020552365  0.138734774

 FORCES acting on ions
    electron-ion (+dipol)            ewald-force                    non-local-force                 convergence-correction
   -.316E+00 0.322E+04 0.275E+03   0.354E+00 -.197E+04 -.237E+03   0.145E+00 -.172E+02 -.951E+01   -.288E-01 -.124E+04 -.362E+02
   0.122E-01 -.147E+04 -.303E+02   0.961E-05 0.385E+02 -.177E+00   0.389E-01 -.258E+01 0.335E+00   -.186E-01 0.143E+04 0.302E+02
   0.870E-01 -.945E+03 -.280E+01   -.569E-06 -.204E+03 -.272E-02   0.271E+00 -.253E+01 0.331E+00   -.458E-01 0.115E+04 0.247E+01
   0.400E+00 -.948E+03 -.635E+02   -.707E+00 0.181E+04 0.133E+03   -.554E-02 -.101E+01 0.347E+00   0.199E+00 -.874E+03 -.649E+02
   -.724E-02 -.465E+03 -.941E+01   0.317E-06 -.446E+03 0.288E-02   0.264E-01 -.223E+01 0.417E+00   -.122E-01 0.912E+03 0.884E+01
   0.656E-01 -.134E+04 -.250E+02   -.130E+00 0.149E+04 0.557E+01   0.533E-02 -.456E+00 0.278E+00   0.373E-01 -.151E+03 0.176E+02
   0.463E-01 0.745E+02 -.783E+01   -.152E-06 -.688E+03 0.925E-02   0.233E+00 -.182E+01 0.461E+00   -.303E-01 0.615E+03 0.805E+01
   -.569E-01 -.168E+04 -.359E+02   0.539E-01 0.124E+04 -.521E+01   0.145E-01 0.832E+00 0.225E+00   -.302E-02 0.431E+03 0.388E+02
   -.913E-03 0.661E+03 -.725E+01   -.141E-06 -.930E+03 0.554E-01   -.137E+00 0.530E+00 0.452E+00   -.180E-01 0.267E+03 0.664E+01
   0.474E-01 -.187E+04 -.430E+02   -.283E-01 0.998E+03 0.582E-01   0.874E-02 0.647E+00 0.465E+00   -.741E-02 0.868E+03 0.410E+02
   -.134E-01 0.127E+04 -.100E+02   0.103E-05 -.117E+04 0.423E-01   -.142E-01 0.163E+01 0.177E+00   0.110E-01 -.101E+03 0.957E+01
   -.692E-01 -.185E+04 0.371E+01   0.222E-01 0.762E+03 -.816E+01   -.118E-01 -.258E+00 -.444E+00   0.424E-01 0.109E+04 0.479E+01
   -.542E-01 0.194E+04 0.120E+02   0.134E-04 -.141E+04 -.321E+01   -.791E-02 0.164E+01 -.581E+00   0.500E-01 -.534E+03 -.839E+01
   0.204E+00 -.187E+04 0.476E+01   -.246E+00 0.543E+03 -.149E+02   0.303E-02 0.724E+00 -.585E+00   0.523E-01 0.132E+04 0.985E+01
   0.280E-01 0.254E+04 0.467E+02   -.822E-02 -.165E+04 -.397E+02   0.899E-02 0.149E+01 -.631E+00   -.226E-01 -.885E+03 -.677E+01
   -.349E-01 -.181E+04 -.386E+02   -.154E-02 0.280E+03 -.196E+01   -.322E-02 0.503E+00 -.141E+00   0.221E-01 0.152E+04 0.399E+02
   -.108E+01 -.898E+03 0.517E+03   0.933E+00 -.588E+02 -.419E+03   -.116E+00 -.621E+01 0.183E+02   0.309E+00 0.964E+03 -.116E+03
   -.647E+00 -.978E+03 0.191E+03   0.881E+00 0.159E+04 -.387E+03   0.755E-01 0.253E+01 -.487E+01   -.165E+00 -.610E+03 0.189E+03
   0.100E+01 -.720E+03 -.523E+03   -.933E+00 -.290E+03 0.419E+03   0.189E+00 0.282E+01 -.181E+02   -.325E+00 0.101E+04 0.122E+03
   -.225E+00 -.792E+03 -.242E+03   0.239E+00 0.154E+04 0.497E+03   0.660E-01 -.155E+01 0.531E+01   -.165E-01 -.752E+03 -.243E+03
   -.101E+01 -.133E+04 0.496E+03   0.933E+00 0.149E+03 -.419E+03   -.312E+00 -.108E+02 0.188E+02   0.358E+00 0.119E+04 -.954E+02
   0.139E+00 -.658E+03 0.763E+02   -.264E+00 0.183E+04 -.161E+03   -.139E-01 0.603E+01 -.445E+01   0.911E-01 -.115E+04 0.767E+02
   0.985E+00 -.278E+03 -.507E+03   -.933E+00 -.498E+03 0.419E+03   0.191E+00 0.549E+01 -.163E+02   -.260E+00 0.769E+03 0.105E+03
   0.254E+00 -.103E+04 -.257E+03   -.348E+00 0.120E+04 0.438E+03   -.284E-01 -.194E-01 0.578E+01   0.476E-01 -.167E+03 -.171E+03
   -.111E+01 -.846E+01 0.559E+03   0.933E+00 -.474E+03 -.419E+03   -.146E+00 -.722E+01 0.139E+02   0.381E+00 0.490E+03 -.156E+03
   -.342E+00 -.158E+04 0.253E+03   0.640E+00 0.118E+04 -.427E+03   -.953E-01 -.175E+01 0.436E+01   -.127E+00 0.408E+03 0.162E+03
   0.109E+01 0.131E+03 -.558E+03   -.933E+00 -.705E+03 0.419E+03   0.145E+00 0.479E+01 -.142E+02   -.342E+00 0.568E+03 0.155E+03
   0.461E+00 -.127E+04 -.273E+03   -.619E+00 0.950E+03 0.426E+03   0.117E-01 0.364E+00 0.606E+00   0.763E-01 0.318E+03 -.143E+03
   -.993E+00 -.527E+03 0.506E+03   0.933E+00 -.266E+03 -.419E+03   -.157E+00 -.631E+01 0.165E+02   0.253E+00 0.802E+03 -.104E+03
   -.569E+00 -.130E+04 0.243E+03   0.621E+00 0.140E+04 -.436E+03   0.752E-01 0.166E+01 -.338E+01   -.154E-01 -.960E+02 0.183E+03
   0.131E+01 0.684E+03 -.546E+03   -.933E+00 -.913E+03 0.419E+03   0.202E+00 0.526E+01 -.133E+02   -.603E+00 0.221E+03 0.142E+03
   0.451E+00 -.146E+04 -.323E+03   -.652E+00 0.744E+03 0.422E+03   0.495E-01 0.122E+01 -.803E+01   0.609E-01 0.715E+03 -.849E+02
   -.135E+01 0.101E+04 0.592E+03   0.933E+00 -.888E+03 -.420E+03   -.179E+00 -.566E+01 0.123E+02   0.618E+00 -.115E+03 -.186E+03
   -.367E+00 -.168E+04 0.363E+03   0.643E+00 0.756E+03 -.427E+03   -.992E-01 -.711E+00 0.143E+02   -.102E+00 0.927E+03 0.476E+02
   0.121E+01 0.116E+04 -.591E+03   -.933E+00 -.112E+04 0.420E+03   0.206E+00 0.760E+01 -.121E+02   -.506E+00 -.481E+02 0.186E+03
   0.487E+00 -.149E+04 -.363E+03   -.670E+00 0.541E+03 0.421E+03   0.118E+00 0.410E+01 -.148E+02   -.190E-01 0.946E+03 -.411E+02
   -.135E+01 0.445E+03 0.544E+03   0.933E+00 -.681E+03 -.419E+03   -.164E+00 -.259E+01 0.136E+02   0.619E+00 0.240E+03 -.140E+03
   -.461E+00 -.172E+04 0.303E+03   0.685E+00 0.968E+03 -.421E+03   -.123E+00 -.418E+01 0.135E+02   -.593E-01 0.761E+03 0.101E+03
   0.128E+01 0.175E+04 -.587E+03   -.933E+00 -.133E+04 0.420E+03   0.174E+00 0.433E+01 -.125E+02   -.538E+00 -.434E+03 0.181E+03
   0.490E+00 -.144E+04 -.327E+03   -.585E+00 0.352E+03 0.419E+03   0.121E+00 0.530E+01 -.158E+02   -.110E+00 0.108E+04 -.739E+02
   -.128E+01 0.211E+04 0.589E+03   0.102E+01 -.135E+04 -.455E+03   -.110E+00 -.113E+00 0.168E+02   0.418E+00 -.757E+03 -.150E+03
   -.814E+00 -.168E+04 0.382E+03   0.933E+00 0.357E+03 -.420E+03   -.202E+00 -.110E+02 0.188E+02   0.988E-01 0.133E+04 0.188E+02
   0.118E+01 0.228E+04 -.537E+03   -.934E+00 -.152E+04 0.411E+03   0.134E+00 0.545E+01 -.170E+02   -.423E+00 -.767E+03 0.143E+03
   0.519E+00 -.141E+04 -.377E+03   -.928E+00 0.122E+03 0.417E+03   0.191E+00 0.506E+01 -.192E+02   0.168E+00 0.129E+04 -.206E+02
   -.113E+01 0.159E+04 0.590E+03   0.932E+00 -.110E+04 -.426E+03   -.207E+00 -.681E+01 0.126E+02   0.411E+00 -.487E+03 -.178E+03
   -.509E+00 -.174E+04 0.330E+03   0.928E+00 0.568E+03 -.424E+03   -.211E+00 -.662E+01 0.138E+02   -.143E+00 0.118E+04 0.772E+02
   0.118E+01 0.268E+04 -.410E+03   -.899E+00 -.167E+04 0.285E+03   0.140E+00 0.866E+01 -.139E+02   -.465E+00 -.101E+04 0.141E+03
   0.827E+00 -.119E+04 -.493E+03   -.933E+00 -.830E+02 0.419E+03   0.298E+00 0.341E+01 -.197E+02   -.155E+00 0.127E+04 0.928E+02
   -.424E-01 -.159E+05 -.309E+03   -.242E-13 -.151E-11 -.398E-12   0.798E+00 -.175E+02 -.168E+02   -.241E+00 0.159E+05 0.320E+03

 POSITION                                       TOTAL-FORCE (eV/Angst)
      0.00000      5.00000      0.00000         0.144155    -12.752906     -6.851284
      0.00000     24.32810      0.00000         0.021823     -0.515597      0.150313
      1.52600     21.91209      6.30700         0.301030      0.382898      0.120628
      1.51867     41.28963      6.33432        -0.124160    -12.210242      5.256142
      0.09280     19.49608      5.40600        -0.003825     -0.455134     -0.038376
      2.92514     38.80118      5.42027        -0.032200     -2.471268     -1.481212
      1.49507     17.08006      4.50500         0.238687     -0.215756      0.811150
      1.49523     36.42731      4.50662        -0.002275     -3.253305     -1.956473
      0.06186     14.66405      3.60400        -0.166819     -0.671924      0.017683
      0.06210     34.01454      3.60456         0.009680     -2.911094     -1.356605
      1.46414     12.24804      2.70300        -0.027372      0.063315     -0.118779
      1.46444     31.59772      2.67866        -0.027122     -0.762904      0.020922
      0.03093      9.83202      1.80200        -0.022791      1.599950     -0.014880
      0.03093     29.16012      1.80200         0.002595     -1.312207     -0.725625
      1.43321      7.41601      0.90100        -0.004622      0.496355     -0.291601
      1.43321     26.74411      0.90100        -0.028244     -1.224527     -0.693760
      0.10308     21.32802      5.10373         0.032447      1.255638      0.004072
      0.09448     40.65096      5.13180         0.133859      5.913325    -12.484442
      2.82519     22.49616      0.30227        -0.076609     -1.359744      0.156339
      2.81132     41.31842      0.22795         0.053173     -0.800257     16.971502
      1.53629     23.74403      6.00473        -0.042621      0.373414      0.691041
      1.51619     42.74340      5.68692        -0.058588     24.359057    -12.116300
      1.51571     20.08014      6.60926        -0.027431     -1.173233      0.580724
      1.50883     39.23356      6.54809        -0.085799     -0.353303     16.029157
      0.07215     16.49599      3.30173         0.043726      0.639200     -2.223778
      0.07435     35.93233      3.33955         0.064520      1.658028     -7.158483
      2.91799     17.66413      5.70827        -0.055427     -0.988487      2.218127
      2.91583     36.89744      5.68360        -0.081194     -2.624633     10.821134
      1.50536     18.91201      4.20273         0.025542      2.518264     -0.488294
      1.50409     38.33408      4.22072         0.101117      5.187343    -12.595692
      1.48478     15.24812      4.80727        -0.030822     -2.225271      2.327833
      1.48302     34.51134      4.77090        -0.101694     -1.533066      5.347138
      0.04122     11.66397      1.49973         0.012485      0.737406     -1.579699
      0.04351     31.08916      1.51710         0.063746      1.326465     -2.455516
      2.88706     12.83210      3.90627        -0.030951     -1.010240      2.060372
      2.88546     32.08877      3.85199        -0.095816      0.132873      2.473393
      1.47442     14.07998      2.40073         0.026049      2.051691     -1.684844
      1.47651     33.51287      2.43639         0.030721      1.539265     -2.764698
      1.45385     10.41609      3.00527        -0.031294     -1.972913      1.501559
      1.45132     29.66694      2.94760        -0.095660      0.480845      2.903733
      0.13401      6.83195      6.90573         0.036557      4.294825      0.778826
      0.13401     26.16004      6.90573         0.004747     -0.772756     -0.511315
      2.85612      8.00008      2.10427        -0.051635     -1.364966     -0.576202
      2.85612     27.32818      2.10427        -0.060984     -1.201874      0.937635
      1.44349      9.24796      0.59873        -0.007564      0.418155     -1.290303
      1.44349     28.57606      0.59873         0.054537      2.081240     -1.934926
      1.42292      5.58407      1.20327        -0.054216      0.968967      1.579723
      1.42292     24.91217      1.20327         0.026539     -2.340915     -0.366058
    total drift:                                0.514549     -7.822536     -5.775516

  FREE ENERGIE OF THE ION-ELECTRON SYSTEM (eV)
  free  energy   TOTEN  =      -534.76097371 eV

  energy  without entropy=     -534.76097371  energy(sigma->0) =     -534.76097371

 BZINTS: Fermi energy: -0.969292;304.000000 electrons
         Band energy:***********;  BLOECHL correction: -0.011152