 vasp.5.3.3 18Dez12 (build May 12 2016 12:04:25) complex

 executed on             LinuxIFC date 2019.05.18  10:31:18

 INCAR:
 POTCAR:    PAW_PBE Mn 06Sep2000
 POTCAR:    PAW_PBE O 08Apr2002
 POTCAR:    PAW_PBE Mn 06Sep2000

 POTCAR:    PAW_PBE O 08Apr2002

  PAW_PBE Mn 06Sep2000                  :
  PAW_PBE O 08Apr2002                   :

 POSCAR: (Mn O2)4  (Pnma) ~  (Pearson #541374)_1
  positions in direct lattice
  velocities in cartesian coordinates
 exchange correlation table for  LEXCH =       14
   RHO(1)=    0.500       N(1)  =     2000
   RHO(2)=  100.500       N(2)  =     4000

 ion  position               nearest neighbor table
   1  0.136  0.250  0.022-   8 1.86   8 1.86  10 1.89   5 1.91  12 1.92  12 1.92   3 2.91   3 2.91

   2  0.636  0.250  0.478-   7 1.86   7 1.86   9 1.89   6 1.91  11 1.92  11 1.92   4 2.91   4 2.91

[...]

   5  0.275  0.250  0.333-   4 1.86   4 1.86   1 1.91
   6  0.775  0.250  0.167-   3 1.86   3 1.86   2 1.91
   7  0.725  0.750  0.667-   2 1.86   2 1.86   3 1.91
   8  0.225  0.750  0.833-   1 1.86   1 1.86   4 1.91
   9  0.467  0.250  0.711-   2 1.89   4 1.92   4 1.92
  10  0.967  0.250  0.789-   1 1.89   3 1.92   3 1.92
  11  0.533  0.750  0.289-   4 1.89   2 1.92   2 1.92
  12  0.033  0.750  0.211-   3 1.89   1 1.92   1 1.92

  LATTYP: Found a simple orthorhombic cell.
 ALAT       =     2.8660000000
 B/A-ratio  =     1.5816468946
 C/A-ratio  =     3.2344731333

  Lattice vectors:

 A1 = (   0.0000000000,   2.8660000000,   0.0000000000)
 A2 = (   0.0000000000,   0.0000000000,  -4.5330000000)
 A3 = (  -9.2700000000,   0.0000000000,   0.0000000000)

Analysis of symmetry for initial positions (statically):
 Subroutine PRICEL returns:
 Original cell was already a primitive cell.

 Routine SETGRP: Setting up the symmetry group for a
 simple orthorhombic supercell.

 Subroutine GETGRP returns: Found  8 space group operations
 (whereof  2 operations were pure point group operations)
 out of a pool of  8 trial point group operations.

The static configuration has the point symmetry S_2 .
 The point group associated with its full space group is D_2h.

Analysis of symmetry for dynamics (positions and initial velocities):
 Subroutine PRICEL returns:
 Original cell was already a primitive cell.

 Routine SETGRP: Setting up the symmetry group for a
 simple orthorhombic supercell.

 Subroutine GETGRP returns: Found  8 space group operations
 (whereof  2 operations were pure point group operations)
 out of a pool of  8 trial point group operations.

The dynamic configuration has the point symmetry S_2 .
 The point group associated with its full space group is D_2h.

Analysis of magnetic symmetry:

 Subroutine MAGSYM returns: Found  8 space group operations
 (whereof  2 operations were pure point group operations)
 out of a pool of  8 trial space group operations
 (whereof  2 operations were pure point group operations)
 and found also     1 'primitive' translations

The magnetic configuration has the point symmetry S_2 .
 The point group associated with its full space group is D_2h.

 irot  :   1
 isymop:   1   0   0
           0   1   0
           0   0   1

 gtrans:     0.0000000     0.0000000     0.0000000

 ptrans:     0.0000000     0.0000000     0.0000000
 rotmap:
 (   1->   1)  (   2->   2)  (   3->   3)  (   4->   4)  (   5->   5)
 (   6->   6)  (   7->   7)  (   8->   8)  (   9->   9)  (  10->  10)
 (  11->  11)  (  12->  12)

[...]

 irot  :   8
 isymop:   1   0   0
           0  -1   0
           0   0   1

 gtrans:     0.0000000     0.5000000     0.0000000

 ptrans:     0.0000000     0.0000000     0.0000000
 rotmap:
 (   1->   1)  (   2->   2)  (   3->   3)  (   4->   4)  (   5->   5)
 (   6->   6)  (   7->   7)  (   8->   8)  (   9->   9)  (  10->  10)
 (  11->  11)  (  12->  12)

 KPOINTS: Automatic mesh

Automatic generation of k-mesh.
Space group operators:
 irot       det(A)        alpha          n_x          n_y          n_z        tau_x        tau_y        tau_z
    1     1.000000     0.000000     1.000000     0.000000     0.000000     0.000000     0.000000     0.000000
    2    -1.000000     0.000000     1.000000     0.000000     0.000000     0.000000     0.000000     0.000000
    3     1.000000   180.000000     1.000000     0.000000     0.000000    -0.500000     0.500000    -0.500000
    4    -1.000000   180.000000     1.000000     0.000000     0.000000    -0.500000     0.500000    -0.500000
    5     1.000000   180.000000     0.000000     0.000000     1.000000    -0.500000     0.000000    -0.500000
    6    -1.000000   180.000000     0.000000     0.000000     1.000000    -0.500000     0.000000    -0.500000
    7     1.000000   180.000000     0.000000     1.000000     0.000000     0.000000     0.500000     0.000000
    8    -1.000000   180.000000     0.000000     1.000000     0.000000     0.000000     0.500000     0.000000

 Subroutine IBZKPT returns following result:

 Found     40 irreducible k-points:

 Following reciprocal coordinates:
            Coordinates               Weight
  0.000000  0.000000  0.000000      1.000000
  0.333333  0.000000  0.000000      2.000000
  0.000000  0.111111  0.000000      2.000000
  0.333333  0.111111  0.000000      4.000000
  0.000000  0.222222  0.000000      2.000000
  0.333333  0.222222  0.000000      4.000000
  0.000000  0.333333  0.000000      2.000000
  0.333333  0.333333  0.000000      4.000000
  0.000000  0.444444  0.000000      2.000000
  0.333333  0.444444  0.000000      4.000000
  0.000000  0.000000  0.166667      2.000000
  0.333333  0.000000  0.166667      4.000000
  0.000000  0.111111  0.166667      4.000000
  0.333333  0.111111  0.166667      8.000000
  0.000000  0.222222  0.166667      4.000000
  0.333333  0.222222  0.166667      8.000000
  0.000000  0.333333  0.166667      4.000000
  0.333333  0.333333  0.166667      8.000000
  0.000000  0.444444  0.166667      4.000000
  0.333333  0.444444  0.166667      8.000000
  0.000000  0.000000  0.333333      2.000000
  0.333333  0.000000  0.333333      4.000000
  0.000000  0.111111  0.333333      4.000000
  0.333333  0.111111  0.333333      8.000000
  0.000000  0.222222  0.333333      4.000000
  0.333333  0.222222  0.333333      8.000000
  0.000000  0.333333  0.333333      4.000000
  0.333333  0.333333  0.333333      8.000000
  0.000000  0.444444  0.333333      4.000000
  0.333333  0.444444  0.333333      8.000000
  0.000000  0.000000  0.500000      1.000000
  0.333333  0.000000  0.500000      2.000000
  0.000000  0.111111  0.500000      2.000000
  0.333333  0.111111  0.500000      4.000000
  0.000000  0.222222  0.500000      2.000000
  0.333333  0.222222  0.500000      4.000000
  0.000000  0.333333  0.500000      2.000000
  0.333333  0.333333  0.500000      4.000000
  0.000000  0.444444  0.500000      2.000000
  0.333333  0.444444  0.500000      4.000000

 Following cartesian coordinates:
            Coordinates               Weight
  0.000000  0.000000  0.000000      1.000000
  0.035958  0.000000  0.000000      2.000000
  0.000000  0.038769  0.000000      2.000000
  0.035958  0.038769  0.000000      4.000000
  0.000000  0.077537  0.000000      2.000000
  0.035958  0.077537  0.000000      4.000000
  0.000000  0.116306  0.000000      2.000000
  0.035958  0.116306  0.000000      4.000000
  0.000000  0.155075  0.000000      2.000000
  0.035958  0.155075  0.000000      4.000000
  0.000000  0.000000  0.036767      2.000000
  0.035958  0.000000  0.036767      4.000000
  0.000000  0.038769  0.036767      4.000000
  0.035958  0.038769  0.036767      8.000000
  0.000000  0.077537  0.036767      4.000000
  0.035958  0.077537  0.036767      8.000000
  0.000000  0.116306  0.036767      4.000000
  0.035958  0.116306  0.036767      8.000000
  0.000000  0.155075  0.036767      4.000000
  0.035958  0.155075  0.036767      8.000000
  0.000000  0.000000  0.073535      2.000000
  0.035958  0.000000  0.073535      4.000000
  0.000000  0.038769  0.073535      4.000000
  0.035958  0.038769  0.073535      8.000000
  0.000000  0.077537  0.073535      4.000000
  0.035958  0.077537  0.073535      8.000000
  0.000000  0.116306  0.073535      4.000000
  0.035958  0.116306  0.073535      8.000000
  0.000000  0.155075  0.073535      4.000000
  0.035958  0.155075  0.073535      8.000000
  0.000000  0.000000  0.110302      1.000000
  0.035958  0.000000  0.110302      2.000000
  0.000000  0.038769  0.110302      2.000000
  0.035958  0.038769  0.110302      4.000000
  0.000000  0.077537  0.110302      2.000000
  0.035958  0.077537  0.110302      4.000000
  0.000000  0.116306  0.110302      2.000000
  0.035958  0.116306  0.110302      4.000000
  0.000000  0.155075  0.110302      2.000000
  0.035958  0.155075  0.110302      4.000000

 I would recommend the setting:
   dimension x,y,z NGX =    52 NGY =   16 NGZ =   25
 SYSTEM =  (Mn O2)4  (Pnma) ~  (Pearson
 POSCAR =  (Mn O2)4  (Pnma) ~  (Pearson #541374)_1

 Startparameter for this run:
   NWRITE =      1    write-flag & timer
   PREC   = normal    normal or accurate (medium, high low for compatibility)
   ISTART =      0    job   : 0-new  1-cont  2-samecut
   ICHARG =      2    charge: 1-file 2-atom 10-const
   ISPIN  =      2    spin polarized calculation?
   LNONCOLLINEAR =      F non collinear calculations
   LSORBIT =      F    spin-orbit coupling
   INIWAV =      1    electr: 0-lowe 1-rand  2-diag
   LASPH  =      F    aspherical Exc in radial PAW
   METAGGA=      F    non-selfconsistent MetaGGA calc.

 Electronic Relaxation 1
   ENCUT  =  520.0 eV  38.22 Ry    6.18 a.u.  17.24  5.33  8.43*2*pi/ulx,y,z
   ENINI  =  520.0     initial cutoff
   ENAUG  =  605.4 eV  augmentation charge cutoff
   NELM   =     60;   NELMIN=  2; NELMDL= -5     # of ELM steps
   EDIFF  = 0.1E-03   stopping-criterion for ELM
   LREAL  =      F    real-space projection
   NLSPLINE    = F    spline interpolate recip. space projectors
   LCOMPAT=      F    compatible to vasp.4.4
   GGA_COMPAT  = T    GGA compatible to vasp.4.4-vasp.4.6
   LMAXPAW     = -100 max onsite density
   LMAXMIX     =    2 max onsite mixed and CHGCAR
   VOSKOWN=      1    Vosko Wilk Nusair interpolation
   ROPT   =    0.00000   0.00000
 Ionic relaxation
   EDIFFG = 0.1E-02   stopping-criterion for IOM
   NSW    =    100    number of steps for IOM
   NBLOCK =      1;   KBLOCK =    100    inner block; outer block
   IBRION =      2    ionic relax: 0-MD 1-quasi-New 2-CG
   NFREE  =      1    steps in history (QN), initial steepest desc. (CG)
   ISIF   =      3    stress and relaxation
   IWAVPR =     11    prediction:  0-non 1-charg 2-wave 3-comb
   ISYM   =      2    0-nonsym 1-usesym 2-fastsym
   LCORR  =      T    Harris-Foulkes like correction to forces

   POTIM  = 0.5000    time-step for ionic-motion
   TEIN   =    0.0    initial temperature
   TEBEG  =    0.0;   TEEND  =   0.0 temperature during run
   SMASS  =  -3.00    Nose mass-parameter (am)
   estimated Nose-frequenzy (Omega)   =  0.10E-29 period in steps =****** mass=  -0.196E-26a.u.
   SCALEE = 1.0000    scale energy and forces
   NPACO  =    256;   APACO  = 16.0  distance and # of slots for P.C.
   PSTRESS=    0.0 pullay stress

  Mass of Ions in am
   POMASS =  54.94 16.00
  Ionic Valenz
   ZVAL   =   7.00  6.00
[...]

[...]

 soft charge-density along one line, spin component           1
         0         1         2         3         4         5         6         7         8         9
 total charge-density along one line

[...]

------------------------ aborting loop because EDIFF is reached ----------------------------------------

  FORCE on cell =-STRESS in cart. coord.  units (eV):
  Direction    XX          YY          ZZ          XY          YZ          ZX
  Alpha Z   316.00000   316.00000   316.00000
  Ewald   -1253.15067  -843.01898 -2027.76500     0.00000     0.00000     0.00000
  Hartree   527.36263   739.81647    81.61021    -0.00000    -0.00000    -0.00000
  E(xc)    -368.75031  -368.91380  -368.26267     0.00000    -0.00000    -0.00000
  Local    -445.93680 -1048.28670   749.35440     0.00000    -0.00000    -0.00000
  n-local  -263.07992  -258.05572  -267.96055     0.04052    -0.05160     0.01830
  augment   173.06888   169.61555   176.42145     0.00000     0.00000    -0.00000
  Kinetic  1310.86477  1289.46477  1339.17958    -0.06870    -0.82914    -0.01934
  Fock        0.00000     0.00000     0.00000     0.00000     0.00000     0.00000
  Total      -3.62144    -3.37842    -1.42257     0.00000     0.00000     0.00000
  in kB     -48.17817   -44.94508   -18.92535     0.00000     0.00000     0.00000

 VOLUME and BASIS-vectors are now :
  energy-cutoff  :      520.00
  volume of cell :      120.43
      direct lattice vectors                 reciprocal lattice vectors
     9.270000000  0.000000000  0.000000000     0.107874865  0.000000000  0.000000000
     0.000000000  2.866000000  0.000000000     0.000000000  0.348918353  0.000000000
     0.000000000  0.000000000  4.533000000     0.000000000  0.000000000  0.220604456

[...]

 FORCES acting on ions
    electron-ion (+dipol)            ewald-force                    non-local-force                 convergence-correction
   -.432E+02 -.118E-10 -.611E+01   0.436E+02 -.320E-13 0.652E+01   -.643E+00 -.339E-17 0.573E+00   -.282E-01 0.617E-16 -.735E-03
   -.432E+02 0.123E-10 0.611E+01   0.436E+02 0.379E-13 -.652E+01   -.643E+00 -.742E-18 -.573E+00   -.282E-01 -.308E-13 0.735E-03
   0.432E+02 -.116E-10 0.611E+01   -.436E+02 0.432E-13 -.652E+01   0.643E+00 0.323E-17 -.573E+00   0.282E-01 0.289E-13 0.735E-03
   0.432E+02 0.133E-10 -.611E+01   -.436E+02 -.264E-13 0.652E+01   0.643E+00 -.746E-18 0.573E+00   0.282E-01 -.133E-13 -.735E-03
   0.381E+02 -.222E-10 0.389E+02   -.421E+02 0.869E-14 -.431E+02   0.379E+01 -.483E-17 0.358E+01   0.163E-01 0.511E-13 0.105E-01
   0.381E+02 -.217E-10 -.389E+02   -.421E+02 -.174E-13 0.431E+02   0.379E+01 0.608E-18 -.358E+01   0.163E-01 0.180E-13 -.105E-01
   -.381E+02 -.205E-10 -.389E+02   0.421E+02 -.162E-13 0.431E+02   -.379E+01 0.520E-17 -.358E+01   -.163E-01 0.274E-13 -.105E-01
   -.381E+02 -.214E-10 0.389E+02   0.421E+02 0.100E-13 -.431E+02   -.379E+01 -.552E-18 0.358E+01   -.163E-01 0.377E-13 0.105E-01
   -.206E+02 -.235E-10 -.208E+03   0.220E+02 0.170E-13 0.232E+03   -.148E+01 0.948E-18 -.247E+02   0.106E-02 0.247E-13 -.532E-01
   -.206E+02 -.266E-10 0.208E+03   0.220E+02 -.310E-13 -.232E+03   -.148E+01 0.194E-17 0.247E+02   0.106E-02 0.211E-13 0.532E-01
   0.206E+02 -.243E-10 0.208E+03   -.220E+02 -.328E-13 -.232E+03   0.148E+01 -.115E-17 0.247E+02   -.106E-02 0.579E-13 0.532E-01
   0.206E+02 -.190E-10 -.208E+03   -.220E+02 0.151E-13 0.232E+03   0.148E+01 0.112E-17 -.247E+02   -.106E-02 0.326E-13 -.532E-01
   -.284E-11 -.177E-09 -.750E-10   0.782E-13 -.240E-13 -.568E-13   -.444E-15 0.163E-17 0.000E+00   0.189E-12 0.255E-12 -.211E-12

 POSITION                                       TOTAL-FORCE (eV/Angst)
      1.26072      0.71650      0.09973        -0.317612     -0.000000      0.982996
      5.89572      0.71650      2.16677        -0.317612      0.000000     -0.982996
      8.00928      2.14950      4.43327         0.317612     -0.000000     -0.982996
      3.37428      2.14950      2.36623         0.317612     -0.000000      0.982996
      2.54925      0.71650      1.50949        -0.191925      0.000000     -0.653344
      7.18425      0.71650      0.75701        -0.191925      0.000000      0.653344
      6.72075      2.14950      3.02351         0.191925      0.000000      0.653344
      2.08575      2.14950      3.77599         0.191925     -0.000000     -0.653344
      4.32909      0.71650      3.22296        -0.133667     -0.000000     -0.173623
      8.96409      0.71650      3.57654        -0.133667     -0.000000      0.173623
      4.94091      2.14950      1.31004         0.133667      0.000000      0.173623
      0.30591      2.14950      0.95646         0.133667      0.000000     -0.173623
    total drift:                               -0.000000     -0.000000     -0.000000

  FREE ENERGIE OF THE ION-ELECTRON SYSTEM (eV)
  free  energy   TOTEN  =      -100.50562558 eV

  energy  without entropy=     -100.51189010  energy(sigma->0) =     -100.50771376

[...]

  free energy =  -0.100502184400E+03  energy without entropy=  -0.100508654755E+03

[...]

 d Force = 0.8650980E-01[-0.130E+00, 0.303E+00]  d Energy = 0.8980185E-01-0.329E-02
 d Force =-0.4614371E+01[-0.647E+01,-0.276E+01]  d Ewald  = 0.3714458E+02-0.418E+02

 Steepest descent step on ions:
 trial-energy change:   -0.089802  1 .order   -0.081175   -0.411420    0.249071
  (g-gl).g = 0.411E+00      g.g   = 0.411E+00  gl.gl    = 0.000E+00
 g(Force)  = 0.305E+00   g(Stress)= 0.107E+00 ortho     = 0.000E+00
 gamma     =   0.00000
 trial     =   1.00000
 opt step  =   0.64094  (harmonic =   0.62290) maximal distance =0.03039471
 next E    =  -100.639744   (d E  =  -0.13412)

[...]

 d Force = 0.1690142E-01[-0.134E-01, 0.472E-01]  d Energy = 0.4404687E-01-0.271E-01
 d Force = 0.2101476E+01[ 0.185E+01, 0.235E+01]  d Ewald  =-0.1299553E+02 0.151E+02

[...]

 d Force = 0.2206496E-01[-0.325E-01, 0.766E-01]  d Energy = 0.2604313E-01-0.398E-02
 d Force = 0.1456986E+02[ 0.141E+02, 0.150E+02]  d Ewald  = 0.2898809E+01 0.117E+02

 Conjugate gradient step on ions:
 trial-energy change:   -0.026043  1 .order   -0.026049   -0.086269    0.034170
  (g-gl).g = 0.914E-01      g.g   = 0.927E-01  gl.gl    = 0.411E+00
 g(Force)  = 0.740E-01   g(Stress)= 0.187E-01 ortho     = 0.125E-02
 gamma     =   0.22220
 trial     =   0.92819
 opt step  =   0.66485  (harmonic =   0.66485) maximal distance =0.01640832
 next E    =  -100.670371   (d E  =  -0.03090)

[...]

 d Force = 0.5055423E-02[ 0.942E-03, 0.917E-02]  d Energy = 0.4780918E-02 0.275E-03
 d Force =-0.4023397E+01[-0.406E+01,-0.399E+01]  d Ewald  =-0.7474581E+00-0.328E+01

[...]

 d Force = 0.8988225E-02[ 0.349E-02, 0.145E-01]  d Energy = 0.1056605E-01-0.158E-02
 d Force = 0.2035677E+01[ 0.204E+01, 0.203E+01]  d Ewald  = 0.3856392E+01-0.182E+01

 Conjugate gradient step on ions:
 trial-energy change:   -0.010566  1 .order   -0.010189   -0.018394   -0.001984
  (g-gl).g = 0.246E-01      g.g   = 0.220E-01  gl.gl    = 0.927E-01
 g(Force)  = 0.175E-01   g(Stress)= 0.449E-02 ortho     =-0.379E-02
 gamma     =   0.26574
 trial     =   0.87552
 opt step  =   0.98139  (harmonic =   0.98139) maximal distance =0.01509119
 next E    =  -100.680607   (d E  =  -0.01031)

[...]

 d Force = 0.2418398E-02[-0.400E-03, 0.524E-02]  d Energy = 0.3068615E-02-0.650E-03
 d Force = 0.5312059E+00[ 0.485E+00, 0.577E+00]  d Ewald  =-0.4981546E+01 0.551E+01

 Conjugate gradient step on ions:
 trial-energy change:   -0.003069  1 .order   -0.002788   -0.007804    0.002227
  (g-gl).g = 0.612E-02      g.g   = 0.819E-02  gl.gl    = 0.220E-01
 g(Force)  = 0.480E-02   g(Stress)= 0.340E-02 ortho     = 0.183E-02
 gamma     =   0.27819
 trial     =   0.89669
 opt step  =   0.69760  (harmonic =   0.69760) maximal distance =0.00521262
 next E    =  -100.684136   (d E  =  -0.00304)

[...]

 d Force =-0.7650560E-05[-0.104E-03, 0.890E-04]  d Energy = 0.1110977E-03-0.119E-03
 d Force =-0.1089130E+00[-0.111E+00,-0.107E+00]  d Ewald  = 0.1113528E+01-0.122E+01

[...]

 eigenvalues of (default mixing * dielectric matrix)
  average eigenvalue GAMMA=   1.0007
  1.7972  0.7846  0.4202

[...]

 d Force = 0.2964003E-03[ 0.204E-03, 0.389E-03]  d Energy = 0.5400554E-03-0.244E-03
 d Force = 0.1227739E+00[ 0.121E+00, 0.124E+00]  d Ewald  = 0.2789454E+01-0.267E+01

 Conjugate gradient step on ions:
 trial-energy change:   -0.000540  1 .order   -0.000627   -0.001031   -0.000223
  (g-gl).g = 0.159E-02      g.g   = 0.125E-02  gl.gl    = 0.819E-02
 g(Force)  = 0.353E-03   g(Stress)= 0.894E-03 ortho     =-0.226E-03
 gamma     =   0.19390
 trial     =   0.85687
 opt step  =   1.09308  (harmonic =   1.09308) maximal distance =0.00217478
 next E    =  -100.684937   (d E  =  -0.00066)

 FEWALD executed in parallel

[...]

 eigenvalue-minimisations  :  8496
 total energy-change (2. order) :-0.1511360E-04  (-0.1714014E-02)
 number of electron      76.0000047 magnetization       0.0000000
 augmentation part       17.3957176 magnetization       0.0000000

[...]

----------------------------------------- Iteration   11(   2)  ---------------------------------------

 eigenvalue-minimisations  :  8544
 total energy-change (2. order) : 0.5634874E-05  (-0.6946638E-04)
 number of electron      76.0000047 magnetization       0.0000000
 augmentation part       17.3957176 magnetization       0.0000000

  free energy =  -0.100684832695E+03  energy without entropy=  -0.100692918126E+03

 average (electrostatic) potential at core
  the test charge radii are     1.0210  0.7215
  (the norm of the test charge is              1.0000)
       1 -47.3159       2 -47.3159       3 -47.3159       4 -47.3159       5 -72.1074
       6 -72.1074       7 -72.1074       8 -72.1074       9 -72.1153      10 -72.1153
      11 -72.1153      12 -72.1153

 E-fermi :   3.0762     XC(G=0): -11.6010     alpha+bet :-10.8039

[...]

 spin component 2

[...]

 k-point  40 :       0.3333    0.4444    0.5000
  band No.  band energies     occupation
      1     -15.1147      1.00000
      2     -15.1119      1.00000
      3     -14.9157      1.00000
      4     -14.8989      1.00000
      5     -14.7964      1.00000
      6     -14.7949      1.00000
      7     -14.7359      1.00000
      8     -14.7224      1.00000
      9      -3.7207      1.00000
     10      -3.6051      1.00000
     11      -3.4981      1.00000
     12      -3.3547      1.00000
     13      -2.7517      1.00000
     14      -2.6678      1.00000
     15      -2.6665      1.00000
     16      -2.5823      1.00000
     17      -2.2944      1.00000
     18      -2.1016      1.00000
     19      -1.7524      1.00000
     20      -1.6963      1.00000
     21      -0.8103      1.00000
     22      -0.7913      1.00000
     23      -0.6685      1.00000
     24      -0.6541      1.00000
     25      -0.2664      1.00000
     26      -0.2473      1.00000
     27       0.0047      1.00000
     28       0.3229      1.00000
     29       0.9359      1.00000
     30       1.0142      1.00000
     31       1.1948      1.00000
     32       1.2211      1.00000
     33       1.5867      1.00000
     34       1.6179      1.00000
     35       2.0327      1.00000
     36       2.1646      1.00000
     37       2.2984      1.00000
     38       2.3832      1.00001
     39       4.2046     -0.00000
     40       4.2543     -0.00000
     41       4.4124     -0.00000
     42       4.4949     -0.00000
     43       4.5591     -0.00000
     44       4.6958     -0.00000
     45       5.0416     -0.00000
     46       5.1532     -0.00000
     47       5.4032     -0.00000
     48       5.4322     -0.00000

[...]

 soft charge-density along one line, spin component           2
         0         1         2         3         4         5         6         7         8         9
 total charge-density along one line

------------------------ aborting loop because EDIFF is reached ----------------------------------------

  FORCE on cell =-STRESS in cart. coord.  units (eV):
  Direction    XX          YY          ZZ          XY          YZ          ZX
  Alpha Z   322.36023   322.36023   322.36023
  Ewald   -1273.83629  -873.20488 -2007.20820    -0.00000    -0.00000    -0.00000
  Hartree   519.18242   726.66054    88.53865    -0.00000    -0.00000    -0.00000
  E(xc)    -369.35130  -369.44974  -369.09974     0.00000    -0.00000    -0.00000
  Local    -424.07256 -1011.70427   717.48329    -0.00000     0.00000    -0.00000
  n-local  -262.19356  -257.64294  -266.31639     0.04812    -0.09625     0.00327
  augment   173.06002   169.65217   176.06723     0.00000    -0.00000     0.00000
  Kinetic  1315.07504  1293.51057  1338.18996    -0.11451    -0.84770     0.02517
  Fock        0.00000     0.00000     0.00000     0.00000     0.00000     0.00000
  Total       0.22400     0.18168     0.01503     0.00000    -0.00000     0.00000
  in kB       3.04002     2.46565     0.20398     0.00000    -0.00000     0.00000

 VOLUME and BASIS-vectors are now :
  energy-cutoff  :      520.00
  volume of cell :      118.06
      direct lattice vectors                 reciprocal lattice vectors
     9.161591668  0.000000000  0.000000000     0.109151339  0.000000000  0.000000000
     0.000000000  2.836796584 -0.000000000     0.000000000  0.352510295  0.000000000
     0.000000000 -0.000000000  4.542428799     0.000000000  0.000000000  0.220146544

  length of vectors
     9.161591668  2.836796584  4.542428799     0.109151339  0.352510295  0.220146544

 FORCES acting on ions
    electron-ion (+dipol)            ewald-force                    non-local-force                 convergence-correction
   -.460E+02 -.121E-10 -.734E+01   0.467E+02 0.224E-13 0.746E+01   -.637E+00 0.190E-17 -.140E+00   -.119E-01 0.257E-12 0.634E-02
   -.460E+02 0.127E-10 0.734E+01   0.467E+02 -.241E-13 -.746E+01   -.637E+00 -.121E-16 0.140E+00   -.119E-01 -.458E-12 -.634E-02
   0.460E+02 -.130E-10 0.734E+01   -.467E+02 -.258E-13 -.746E+01   0.637E+00 0.439E-17 0.140E+00   0.119E-01 -.221E-12 -.634E-02
   0.460E+02 0.127E-10 -.734E+01   -.467E+02 0.207E-13 0.746E+01   0.637E+00 -.496E-17 -.140E+00   0.119E-01 -.805E-12 0.634E-02
   0.246E+02 -.217E-10 0.388E+02   -.255E+02 -.129E-13 -.430E+02   0.841E+00 0.283E-17 0.413E+01   -.327E-02 0.520E-12 0.208E-01
   0.246E+02 -.302E-10 -.388E+02   -.255E+02 0.174E-13 0.430E+02   0.841E+00 -.179E-17 -.413E+01   -.327E-02 0.220E-11 -.208E-01
   -.246E+02 -.200E-10 -.388E+02   0.255E+02 0.175E-13 0.430E+02   -.841E+00 -.390E-17 -.413E+01   0.327E-02 0.106E-11 -.208E-01
   -.246E+02 -.214E-10 0.388E+02   0.255E+02 -.126E-13 -.430E+02   -.841E+00 -.583E-17 0.413E+01   0.327E-02 -.482E-12 0.208E-01
   -.275E+02 -.232E-10 -.211E+03   0.312E+02 -.123E-13 0.236E+03   -.374E+01 -.314E-17 -.251E+02   -.219E-01 0.103E-11 0.399E-02
   -.275E+02 -.165E-10 0.211E+03   0.312E+02 0.109E-13 -.236E+03   -.374E+01 -.779E-18 0.251E+02   -.219E-01 0.285E-12 -.399E-02
   0.275E+02 -.237E-10 0.211E+03   -.312E+02 0.140E-13 -.236E+03   0.374E+01 -.458E-18 0.251E+02   0.219E-01 -.645E-12 -.399E-02
   0.275E+02 -.192E-10 -.211E+03   -.312E+02 -.913E-14 0.236E+03   0.374E+01 -.259E-17 -.251E+02   0.219E-01 -.249E-12 0.399E-02
   -.233E-11 -.176E-09 -.540E-10   -.426E-13 0.592E-14 0.000E+00   0.000E+00 -.265E-16 -.355E-14   0.206E-11 0.249E-11 -.109E-10

 POSITION                                       TOTAL-FORCE (eV/Angst)
      1.24416      0.70920      0.15277         0.020967      0.000000     -0.007851
      5.82496      0.70920      2.11844         0.020967     -0.000000      0.007851
      7.91743      2.12760      4.38966        -0.020967     -0.000000      0.007851
      3.33664      2.12760      2.42398        -0.020967      0.000000     -0.007851
      2.54043      0.70920      1.47863         0.009399      0.000000     -0.004118
      7.12123      0.70920      0.79259         0.009399     -0.000000      0.004118
      6.62116      2.12760      3.06380        -0.009399     -0.000000      0.004118
      2.04036      2.12760      3.74984        -0.009399      0.000000     -0.004118
      4.28044      0.70920      3.23657        -0.020067     -0.000000      0.024482
      8.86124      0.70920      3.57707        -0.020067      0.000000     -0.024482
      4.88115      2.12760      1.30586         0.020067      0.000000     -0.024482
      0.30035      2.12760      0.96536         0.020067     -0.000000      0.024482
    total drift:                               -0.000000     -0.000000     -0.000000

  FREE ENERGIE OF THE ION-ELECTRON SYSTEM (eV)
  free  energy   TOTEN  =      -100.68483269 eV

  energy  without entropy=     -100.69291813  energy(sigma->0) =     -100.68752784

 d Force = 0.1681184E-04[-0.226E-04, 0.563E-04]  d Energy = 0.1267965E-04 0.413E-05
 d Force = 0.3330808E-01[ 0.332E-01, 0.334E-01]  d Ewald  = 0.7686016E+00-0.735E+00

 reached required accuracy - stopping structural energy minimisation