 vasp.5.3.3 18Dez12 (build May 12 2016 12:04:25) complex

 executed on             LinuxIFC date 2017.12.01  12:49:16

 INCAR:
 POTCAR:    PAW_PBE Mn 06Sep2000
 POTCAR:    PAW_PBE O 08Apr2002
 POTCAR:    PAW_PBE Li 17Jan2003
 POTCAR:    PAW_PBE Mn 06Sep2000

 POTCAR:    PAW_PBE O 08Apr2002

 POTCAR:    PAW_PBE Li 17Jan2003

  PAW_PBE Mn 06Sep2000                  :
  PAW_PBE O 08Apr2002                   :
  PAW_PBE Li 17Jan2003                  :

 POSCAR:
  positions in direct lattice
  velocities in cartesian coordinates
 exchange correlation table for  LEXCH =        8
   RHO(1)=    0.500       N(1)  =     2000
   RHO(2)=  100.500       N(2)  =     4000

 ion  position               nearest neighbor table
   1  0.250  0.049  0.136-   8 1.94   8 1.94  12 1.95  12 1.95   5 2.25  10 2.54  13 2.57  13 2.60
                            16 3.05  16 3.05
   2  0.250  0.451  0.636-   7 1.94   7 1.94  11 1.95  11 1.95   6 2.25   9 2.54  14 2.57  14 2.60
                            15 3.05  15 3.05
   3  0.750  0.951  0.864-   6 1.94   6 1.94  10 1.95  10 1.95   7 2.25  12 2.54  15 2.57  15 2.60
                            14 3.05  14 3.05
   4  0.750  0.549  0.364-   5 1.94   5 1.94   9 1.95   9 1.95   8 2.25  11 2.54  16 2.57  16 2.60
                            13 3.05  13 3.05
   5  0.250  0.325  0.301-   4 1.94   4 1.94  16 2.23  16 2.23   1 2.25  13 2.33
   6  0.250  0.175  0.801-   3 1.94   3 1.94  15 2.23  15 2.23   2 2.25  14 2.33
   7  0.750  0.675  0.699-   2 1.94   2 1.94  14 2.23  14 2.23   3 2.25  15 2.33
   8  0.750  0.825  0.199-   1 1.94   1 1.94  13 2.23  13 2.23   4 2.25  16 2.33
   9  0.250  0.752  0.444-   4 1.95   4 1.95  14 2.02  16 2.14  16 2.14   2 2.54
  10  0.250  0.748  0.944-   3 1.95   3 1.95  13 2.02  15 2.14  15 2.14   1 2.54
  11  0.750  0.248  0.556-   2 1.95   2 1.95  16 2.02  14 2.14  14 2.14   4 2.54
  12  0.750  0.252  0.056-   1 1.95   1 1.95  15 2.02  13 2.14  13 2.14   3 2.54
  13  0.250  0.546  0.109-  10 2.02  12 2.14  12 2.14   8 2.23   8 2.23   5 2.33   1 2.57   1 2.60
                            15 2.74  15 2.74   4 3.05   4 3.05
  14  0.250  0.954  0.609-   9 2.02  11 2.14  11 2.14   7 2.23   7 2.23   6 2.33   2 2.57   2 2.60
                            16 2.74  16 2.74   3 3.05   3 3.05
  15  0.750  0.454  0.891-  12 2.02  10 2.14  10 2.14   6 2.23   6 2.23   7 2.33   3 2.57   3 2.60
                            13 2.74  13 2.74   2 3.05   2 3.05
  16  0.750  0.046  0.391-  11 2.02   9 2.14   9 2.14   5 2.23   5 2.23   8 2.33   4 2.57   4 2.60
                            14 2.74  14 2.74   1 3.05   1 3.05

  LATTYP: Found a simple orthorhombic cell.
 ALAT       =     2.8359849573
 B/A-ratio  =     1.8122158395
 C/A-ratio  =     3.7237520170

  Lattice vectors:

 A1 = (   0.0000000000,   2.8359849573,   0.0000000000)
 A2 = (   0.0000000000,   0.0000000000,   5.1394168602)
 A3 = (  10.5605047050,   0.0000000000,   0.0000000000)

Analysis of symmetry for initial positions (statically):
 Subroutine PRICEL returns:
 Original cell was already a primitive cell.

 Routine SETGRP: Setting up the symmetry group for a
 simple orthorhombic supercell.

 Subroutine GETGRP returns: Found  8 space group operations
 (whereof  2 operations were pure point group operations)
 out of a pool of  8 trial point group operations.

The static configuration has the point symmetry S_2 .
 The point group associated with its full space group is D_2h.

Analysis of symmetry for dynamics (positions and initial velocities):
 Subroutine PRICEL returns:
 Original cell was already a primitive cell.

 Routine SETGRP: Setting up the symmetry group for a
 simple orthorhombic supercell.

 Subroutine GETGRP returns: Found  8 space group operations
 (whereof  2 operations were pure point group operations)
 out of a pool of  8 trial point group operations.

The dynamic configuration has the point symmetry S_2 .
 The point group associated with its full space group is D_2h.

Analysis of magnetic symmetry:

 Subroutine MAGSYM returns: Found  8 space group operations
 (whereof  2 operations were pure point group operations)
 out of a pool of  8 trial space group operations
 (whereof  2 operations were pure point group operations)
 and found also     1 'primitive' translations

The magnetic configuration has the point symmetry S_2 .
 The point group associated with its full space group is D_2h.

 irot  :   1
 isymop:   1   0   0
           0   1   0
           0   0   1

 gtrans:     0.0000000     0.0000000     0.0000000

 ptrans:     0.0000000     0.0000000     0.0000000
 rotmap:
 (   1->   1)  (   2->   2)  (   3->   3)  (   4->   4)  (   5->   5)
 (   6->   6)  (   7->   7)  (   8->   8)  (   9->   9)  (  10->  10)
 (  11->  11)  (  12->  12)  (  13->  13)  (  14->  14)  (  15->  15)
 (  16->  16)

[...]

 irot  :   8
 isymop:  -1   0   0
           0   1   0
           0   0   1

 gtrans:     0.5000000     0.0000000     0.0000000

 ptrans:     0.0000000     0.0000000     0.0000000
 rotmap:
 (   1->   1)  (   2->   2)  (   3->   3)  (   4->   4)  (   5->   5)
 (   6->   6)  (   7->   7)  (   8->   8)  (   9->   9)  (  10->  10)
 (  11->  11)  (  12->  12)  (  13->  13)  (  14->  14)  (  15->  15)
 (  16->  16)

 KPOINTS: con0.6

Automatic generation of k-mesh.
Space group operators:
 irot       det(A)        alpha          n_x          n_y          n_z        tau_x        tau_y        tau_z
    1     1.000000     0.000000     1.000000     0.000000     0.000000     0.000000     0.000000     0.000000
    2    -1.000000     0.000000     1.000000     0.000000     0.000000     0.000000     0.000000     0.000000
    3     1.000000   180.000000     1.000000     0.000000     0.000000     0.500000     0.500000     0.500000
    4    -1.000000   180.000000     1.000000     0.000000     0.000000     0.500000     0.500000     0.500000
    5     1.000000   180.000000     0.000000     0.000000     1.000000     0.000000     0.500000     0.500000
    6    -1.000000   180.000000     0.000000     0.000000     1.000000     0.000000     0.500000     0.500000
    7     1.000000   180.000000     0.000000     1.000000     0.000000     0.500000     0.000000     0.000000
    8    -1.000000   180.000000     0.000000     1.000000     0.000000     0.500000     0.000000     0.000000

 Subroutine IBZKPT returns following result:

 Found     24 irreducible k-points:

 Following reciprocal coordinates:
            Coordinates               Weight
  0.000000  0.000000  0.000000      1.000000
  0.166667  0.000000  0.000000      2.000000
  0.333333  0.000000  0.000000      2.000000
  0.500000  0.000000  0.000000      1.000000
  0.000000  0.250000  0.000000      2.000000
  0.166667  0.250000  0.000000      4.000000
  0.333333  0.250000  0.000000      4.000000
  0.500000  0.250000  0.000000      2.000000
  0.000000  0.500000  0.000000      1.000000
  0.166667  0.500000  0.000000      2.000000
  0.333333  0.500000  0.000000      2.000000
  0.500000  0.500000  0.000000      1.000000
  0.000000  0.000000  0.500000      1.000000
  0.166667  0.000000  0.500000      2.000000
  0.333333  0.000000  0.500000      2.000000
  0.500000  0.000000  0.500000      1.000000
  0.000000  0.250000  0.500000      2.000000
  0.166667  0.250000  0.500000      4.000000
  0.333333  0.250000  0.500000      4.000000
  0.500000  0.250000  0.500000      2.000000
  0.000000  0.500000  0.500000      1.000000
  0.166667  0.500000  0.500000      2.000000
  0.333333  0.500000  0.500000      2.000000
  0.500000  0.500000  0.500000      1.000000

 Following cartesian coordinates:
            Coordinates               Weight
  0.000000  0.000000  0.000000      1.000000
  0.000000  0.058769  0.000000      2.000000
  0.000000  0.117537  0.000000      2.000000
  0.000000  0.176306  0.000000      1.000000
  0.000000  0.000000  0.048644      2.000000
  0.000000  0.058769  0.048644      4.000000
  0.000000  0.117537  0.048644      4.000000
  0.000000  0.176306  0.048644      2.000000
  0.000000  0.000000  0.097287      1.000000
  0.000000  0.058769  0.097287      2.000000
  0.000000  0.117537  0.097287      2.000000
  0.000000  0.176306  0.097287      1.000000
  0.047346  0.000000  0.000000      1.000000
  0.047346  0.058769  0.000000      2.000000
  0.047346  0.117537  0.000000      2.000000
  0.047346  0.176306  0.000000      1.000000
  0.047346  0.000000  0.048644      2.000000
  0.047346  0.058769  0.048644      4.000000
  0.047346  0.117537  0.048644      4.000000
  0.047346  0.176306  0.048644      2.000000
  0.047346  0.000000  0.097287      1.000000
  0.047346  0.058769  0.097287      2.000000
  0.047346  0.117537  0.097287      2.000000
  0.047346  0.176306  0.097287      1.000000

 TETIRR: Found    144 inequivalent tetrahedra from      288

 I would recommend the setting:
   dimension x,y,z NGX =    16 NGY =   29 NGZ =   59
 SYSTEM =  unknown system
 POSCAR =

 Startparameter for this run:
   NWRITE =      1    write-flag & timer
   PREC   = normal    normal or accurate (medium, high low for compatibility)
   ISTART =      1    job   : 0-new  1-cont  2-samecut
   ICHARG =     11    charge: 1-file 2-atom 10-const
   ISPIN  =      2    spin polarized calculation?
   LNONCOLLINEAR =      F non collinear calculations
   LSORBIT =      F    spin-orbit coupling
   INIWAV =      1    electr: 0-lowe 1-rand  2-diag
   LASPH  =      F    aspherical Exc in radial PAW
   METAGGA=      F    non-selfconsistent MetaGGA calc.

 Electronic Relaxation 1
   ENCUT  =  520.0 eV  38.22 Ry    6.18 a.u.   5.27  9.56 19.64*2*pi/ulx,y,z
   ENINI  =  520.0     initial cutoff
   ENAUG  =  605.4 eV  augmentation charge cutoff
   NELM   =     60;   NELMIN=  5; NELMDL=  0     # of ELM steps
   EDIFF  = 0.1E-04   stopping-criterion for ELM
   LREAL  =      F    real-space projection
   NLSPLINE    = F    spline interpolate recip. space projectors
   LCOMPAT=      F    compatible to vasp.4.4
   GGA_COMPAT  = T    GGA compatible to vasp.4.4-vasp.4.6
   LMAXPAW     = -100 max onsite density
   LMAXMIX     =    4 max onsite mixed and CHGCAR
   VOSKOWN=      1    Vosko Wilk Nusair interpolation
   ROPT   =    0.00000   0.00000   0.00000
 Ionic relaxation
   EDIFFG = -.2E-01   stopping-criterion for IOM
   NSW    =      0    number of steps for IOM
   NBLOCK =      1;   KBLOCK =      1    inner block; outer block
   IBRION =     -1    ionic relax: 0-MD 1-quasi-New 2-CG
   NFREE  =      0    steps in history (QN), initial steepest desc. (CG)
   ISIF   =      2    stress and relaxation
   IWAVPR =     10    prediction:  0-non 1-charg 2-wave 3-comb
   ISYM   =      2    0-nonsym 1-usesym 2-fastsym
   LCORR  =      T    Harris-Foulkes like correction to forces

   POTIM  = 0.5000    time-step for ionic-motion
   TEIN   =    0.0    initial temperature
   TEBEG  =    0.0;   TEEND  =   0.0 temperature during run
   SMASS  =  -3.00    Nose mass-parameter (am)
   estimated Nose-frequenzy (Omega)   =  0.10E-29 period in steps =****** mass=  -0.184E-27a.u.
   SCALEE = 1.0000    scale energy and forces
   NPACO  =    256;   APACO  = 16.0  distance and # of slots for P.C.
   PSTRESS=    0.0 pullay stress

  Mass of Ions in am
   POMASS =  54.94 16.00  7.01
  Ionic Valenz
   ZVAL   =   7.00  6.00  1.00
[...]
 k-point  3 :   0.3333 0.0000 0.0000  plane waves:    4146
 k-point  4 :   0.5000 0.0000 0.0000  plane waves:    4174
 k-point  5 :   0.0000 0.2500 0.0000  plane waves:    4153
 k-point  6 :   0.1667 0.2500 0.0000  plane waves:    4162
 k-point  7 :   0.3333 0.2500 0.0000  plane waves:    4132
 k-point  8 :   0.5000 0.2500 0.0000  plane waves:    4132
 k-point  9 :   0.0000 0.5000 0.0000  plane waves:    4156
 k-point 10 :   0.1667 0.5000 0.0000  plane waves:    4142
 k-point 11 :   0.3333 0.5000 0.0000  plane waves:    4130
 k-point 12 :   0.5000 0.5000 0.0000  plane waves:    4148
 k-point 13 :   0.0000 0.0000 0.5000  plane waves:    4140
 k-point 14 :   0.1667 0.0000 0.5000  plane waves:    4132
 k-point 15 :   0.3333 0.0000 0.5000  plane waves:    4150
 k-point 16 :   0.5000 0.0000 0.5000  plane waves:    4148
 k-point 17 :   0.0000 0.2500 0.5000  plane waves:    4154
 k-point 18 :   0.1667 0.2500 0.5000  plane waves:    4138
 k-point 19 :   0.3333 0.2500 0.5000  plane waves:    4142
 k-point 20 :   0.5000 0.2500 0.5000  plane waves:    4164
 k-point 21 :   0.0000 0.5000 0.5000  plane waves:    4160
 k-point 22 :   0.1667 0.5000 0.5000  plane waves:    4148
 k-point 23 :   0.3333 0.5000 0.5000  plane waves:    4116
 k-point 24 :   0.5000 0.5000 0.5000  plane waves:    4128

 maximum and minimum number of plane-waves per node :      2100     2050

 maximum number of plane-waves:      4174
 maximum index in each direction:
   IXMAX=    5   IYMAX=    9   IZMAX=   19
   IXMIN=   -5   IYMIN=  -10   IZMIN=  -20

 WARNING: aliasing errors must be expected set NGX to  22 to avoid them
 WARNING: aliasing errors must be expected set NGY to  40 to avoid them
 WARNING: aliasing errors must be expected set NGZ to  80 to avoid them
 aliasing errors are usually negligible using standard VASP settings
 and one can safely disregard these warnings

 parallel 3D FFT for wavefunctions:
    minimum data exchange during FFTs selected (reduces bandwidth)
 parallel 3D FFT for charge:
    minimum data exchange during FFTs selected (reduces bandwidth)

 initial charge density was supplied:
 number of electron      80.0000056 magnetization      -0.0000000
 keeping initial charge density in first step

 Maximum index for augmentation-charges          454 (set IRDMAX)

 First call to EWALD:  gamma=   0.331
 Maximum number of real-space cells 5x 3x 2
 Maximum number of reciprocal cells 2x 3x 5

 FEWALD executed in parallel

----------------------------------------- Iteration    1(   1)  ---------------------------------------

 BZINTS: Fermi energy:  2.939211; 80.000000 electrons
         Band energy:-237.857343;  BLOECHL correction:  0.000000

 eigenvalue-minimisations  :  3856
 total energy-change (2. order) :-0.1045611E+03  (-0.1221750E-06)
 number of electron      80.0000056 magnetization      -0.0000000
 augmentation part       80.0000056 magnetization      -0.0000000

 Free energy of the ion-electron system (eV)
  alpha Z        PSCENC =       265.70341246
  Ewald energy   TEWEN  =     -4056.19037329
  -1/2 Hartree   DENC   =     -1489.52130217
  -exchange  EXHF       =         0.00000000
  -V(xc)+E(xc)   XCENC  =       177.17390655
  PAW double counting   =      6347.44327882    -6258.38387346
  entropy T*S    EENTRO =         0.00000000
  eigenvalues    EBANDS =      -237.85734313
  atomic energy  EATOM  =      5147.07115823
  free energy    TOTEN  =      -104.56113598 eV

  energy without entropy =     -104.56113598  energy(sigma->0) =     -104.56113598

[...]

----------------------------------------- Iteration    1(   5)  ---------------------------------------

[...]

 eigenvalue-minimisations  :  3576
 total energy-change (2. order) :-0.9641099E-08  (-0.9742152E-08)
 number of electron      80.0000056 magnetization      -0.0000000
 augmentation part       80.0000056 magnetization      -0.0000000

 Free energy of the ion-electron system (eV)
  alpha Z        PSCENC =       265.70341246
  Ewald energy   TEWEN  =     -4056.19037329
  -1/2 Hartree   DENC   =     -1489.52130217
  -exchange  EXHF       =         0.00000000
  -V(xc)+E(xc)   XCENC  =       177.17390655
  PAW double counting   =      6347.44327882    -6258.38387346
  entropy T*S    EENTRO =         0.00000000
  eigenvalues    EBANDS =      -237.85734323
  atomic energy  EATOM  =      5147.07115823
  free energy    TOTEN  =      -104.56113608 eV

  energy without entropy =     -104.56113608  energy(sigma->0) =     -104.56113608

 average (electrostatic) potential at core
  the test charge radii are     1.0210  0.7215  0.9748
  (the norm of the test charge is              1.0000)
       1 -46.8500       2 -46.8500       3 -46.8500       4 -46.8500       5 -71.2815
       6 -71.2815       7 -71.2815       8 -71.2815       9 -71.1619      10 -71.1619
      11 -71.1619      12 -71.1619      13 -25.3692      14 -25.3692      15 -25.3692
      16 -25.3692

 E-fermi :   2.9369     XC(G=0): -10.7418     alpha+bet :-12.1031

 spin component 1

 k-point   1 :       0.0000    0.0000    0.0000
  band No.  band energies     occupation
      1     -15.1617      1.00000
      2     -14.8492      1.00000
      3     -14.7183      1.00000
      4     -14.3097      1.00000
      5     -14.0375      1.00000
      6     -13.9705      1.00000
      7     -13.8807      1.00000
      8     -13.8714      1.00000
      9      -3.4790      1.00000
     10      -3.3429      1.00000
     11      -2.3711      1.00000
     12      -2.2999      1.00000
     13      -1.9638      1.00000
     14      -1.9541      1.00000
     15      -1.4610      1.00000
     16      -1.4105      1.00000
     17      -1.3912      1.00000
     18      -0.9772      1.00000
     19      -0.6894      1.00000
     20      -0.5175      1.00000
     21      -0.4826      1.00000
     22      -0.1981      1.00000
     23      -0.1205      1.00000
     24      -0.0705      1.00000
     25      -0.0579      1.00000
     26       0.1795      1.00000
     27       0.3371      1.00000
     28       0.5170      1.00000
     29       0.7837      1.00000
     30       1.0582      1.00000
     31       1.1523      1.00000
     32       1.3397      1.00000
     33       1.5123      1.00000
     34       1.6204      1.00000
     35       1.8735      1.00000
     36       1.9199      1.00000
     37       2.0102      1.00000
     38       2.0635      1.00000
     39       2.5502      1.00000
     40       2.6327      1.00000
     41       5.4405      0.00000
     42       5.4652      0.00000
     43       6.0760      0.00000
     44       6.1324      0.00000
     45       6.8558      0.00000
     46       6.9764      0.00000
     47       7.2028      0.00000
     48       7.2191      0.00000
     49       7.3970      0.00000
     50       7.6494      0.00000
     51       7.7460      0.00000
     52       7.7868      0.00000
     53       8.5713      0.00000
     54       9.7515      0.00000
     55      10.1314      0.00000
     56      10.7567      0.00000

[...]

 spin component 2

[...]

 k-point  24 :       0.5000    0.5000    0.5000
  band No.  band energies     occupation
      1     -14.0264      1.00000
      2     -14.0264      1.00000
      3     -14.0008      1.00000
      4     -14.0008      1.00000
      5     -13.8744      1.00000
      6     -13.8744      1.00000
      7     -13.8470      1.00000
      8     -13.8470      1.00000
      9      -3.1049      1.00000
     10      -3.1049      1.00000
     11      -2.6025      1.00000
     12      -2.6025      1.00000
     13      -1.8870      1.00000
     14      -1.8870      1.00000
     15      -1.4355      1.00000
     16      -1.4355      1.00000
     17      -1.2414      1.00000
     18      -1.2414      1.00000
     19      -1.0029      1.00000
     20      -1.0029      1.00000
     21      -0.8261      1.00000
     22      -0.8261      1.00000
     23      -0.5684      1.00000
     24      -0.5684      1.00000
     25      -0.0026      1.00000
     26      -0.0026      1.00000
     27       0.1360      1.00000
     28       0.1360      1.00000
     29       0.2449      1.00000
     30       0.2449      1.00000
     31       0.7283      1.00000
     32       0.7283      1.00000
     33       0.9430      1.00000
     34       0.9430      1.00000
     35       1.4692      1.00000
     36       1.4692      1.00000
     37       1.6807      1.00000
     38       1.6807      1.00000
     39       2.4926      1.00000
     40       2.4926      1.00000
     41       4.9636      0.00000
     42       4.9636      0.00000
     43       6.2690      0.00000
     44       6.2690      0.00000
     45       6.9252      0.00000
     46       6.9252      0.00000
     47       7.2299      0.00000
     48       7.2299      0.00000
     49       7.6827      0.00000
     50       7.6827      0.00000
     51       7.7351      0.00000
     52       7.7351      0.00000
     53      11.7643      0.00000
     54      11.7643      0.00000
     55      11.8378      0.00000
     56      11.8378      0.00000

 soft charge-density along one line, spin component           1
         0         1         2         3         4         5         6         7         8         9
 total charge-density along one line

 soft charge-density along one line, spin component           2
         0         1         2         3         4         5         6         7         8         9
 total charge-density along one line

------------------------ aborting loop because EDIFF is reached ----------------------------------------

 total charge

# of ion     s       p       d       tot
  1        0.305   0.415   4.839   5.559
  2        0.305   0.415   4.839   5.559
  3        0.305   0.415   4.839   5.559
  4        0.305   0.415   4.839   5.559
  5        1.557   3.462   0.000   5.019
  6        1.557   3.462   0.000   5.019
  7        1.557   3.462   0.000   5.019
  8        1.557   3.462   0.000   5.019
  9        1.557   3.464   0.000   5.020
 10        1.557   3.464   0.000   5.020
 11        1.557   3.464   0.000   5.020
 12        1.557   3.464   0.000   5.020
 13        0.088   0.180   0.000   0.268
 14        0.088   0.180   0.000   0.268
 15        0.088   0.180   0.000   0.268
 16        0.088   0.180   0.000   0.268
tot       14.025  30.084  19.354  63.463

 magnetization (x)

[...]

  FORCE on cell =-STRESS in cart. coord.  units (eV):
  Direction    XX          YY          ZZ          XY          YZ          ZX
  Alpha Z   265.70341   265.70341   265.70341
  Ewald   -1636.15261  -795.53527 -1624.50881    -0.00000     0.00000     0.00000
  Hartree   399.02289   817.89059   271.54119    -0.00000    -0.00000    -0.00000
  E(xc)    -386.80143  -387.20512  -387.13507     0.00000    -0.00000    -0.00000
  Local      89.58733 -1125.17594   232.16383     0.00000     0.00000     0.00000
  n-local  -272.17270  -254.69658  -262.64031    -0.00001     0.10557     0.00002
  augment   182.74365   174.14369   178.05191    -0.00000     0.00000    -0.00000
  Kinetic  1357.53448  1304.57101  1326.48376     0.00006    -0.36474    -0.00008
  Fock        0.00000     0.00000     0.00000     0.00000     0.00000     0.00000
  Total      -0.53497    -0.30422    -0.34009     0.00000     0.00000     0.00000
  in kB      -5.56848    -3.16667    -3.53994     0.00000     0.00000     0.00000

 VOLUME and BASIS-vectors are now :
  energy-cutoff  :      520.00
  volume of cell :      153.92
      direct lattice vectors                 reciprocal lattice vectors
     0.000000000  2.835984957  0.000000000     0.000000000  0.352611179  0.000000000
     0.000000000  0.000000000  5.139416860     0.000000000  0.000000000  0.194574604
    10.560504705  0.000000000  0.000000000     0.094692444  0.000000000  0.000000000

  length of vectors
     2.835984957  5.139416860 10.560504705     0.352611179  0.194574604  0.094692444

 FORCES acting on ions
    electron-ion (+dipol)            ewald-force                    non-local-force                 convergence-correction
   -.146E+02 0.253E-13 -.498E+01   0.146E+02 -.138E-13 0.525E+01   -.257E+00 -.151E-17 -.344E+00   0.127E+00 -.221E-16 0.434E-01
   -.146E+02 0.134E-13 0.498E+01   0.146E+02 0.216E-13 -.525E+01   -.257E+00 -.170E-17 0.344E+00   0.127E+00 0.111E-12 -.434E-01
   0.146E+02 0.479E-13 0.498E+01   -.146E+02 0.273E-13 -.525E+01   0.257E+00 -.173E-17 0.344E+00   -.127E+00 -.240E-11 -.434E-01
   0.146E+02 0.622E-13 -.498E+01   -.146E+02 -.252E-13 0.525E+01   0.257E+00 -.144E-17 -.344E+00   -.127E+00 0.749E-13 0.434E-01
   0.211E+02 0.919E-14 0.847E+02   -.261E+02 0.151E-13 -.950E+02   0.502E+01 -.159E-17 0.103E+02   -.380E-01 0.458E-13 0.201E-01
   0.211E+02 0.841E-14 -.847E+02   -.261E+02 0.230E-15 0.950E+02   0.502E+01 0.173E-17 -.103E+02   -.380E-01 0.239E-12 -.201E-01
   -.211E+02 0.116E-12 -.847E+02   0.261E+02 -.163E-13 0.950E+02   -.502E+01 0.200E-17 -.103E+02   0.380E-01 0.670E-13 -.201E-01
   -.211E+02 0.104E-12 0.847E+02   0.261E+02 -.844E-14 -.950E+02   -.502E+01 0.180E-17 0.103E+02   0.380E-01 -.148E-12 0.201E-01
   -.611E+02 -.134E-13 -.150E+03   0.692E+02 0.807E-14 0.160E+03   -.803E+01 0.117E-17 -.988E+01   -.885E-01 -.679E-13 0.317E-01
   -.611E+02 -.143E-13 0.150E+03   0.692E+02 -.168E-13 -.160E+03   -.803E+01 0.996E-19 0.988E+01   -.885E-01 0.455E-12 -.317E-01
   0.611E+02 0.896E-13 0.150E+03   -.692E+02 -.164E-13 -.160E+03   0.803E+01 -.130E-17 0.988E+01   0.885E-01 -.571E-13 -.317E-01
   0.611E+02 0.865E-13 -.150E+03   -.692E+02 0.159E-13 0.160E+03   0.803E+01 -.132E-18 -.988E+01   0.885E-01 0.860E-13 0.317E-01
   0.402E+01 0.545E-15 0.134E+01   -.453E+01 -.527E-15 -.125E+01   0.507E+00 0.638E-19 -.698E-01   0.315E-02 -.271E-15 -.639E-03
   0.402E+01 -.152E-15 -.134E+01   -.453E+01 0.475E-15 0.125E+01   0.507E+00 -.157E-19 0.698E-01   0.315E-02 0.316E-15 0.639E-03
   -.402E+01 0.163E-14 -.134E+01   0.453E+01 -.763E-15 0.125E+01   -.507E+00 0.175E-18 0.698E-01   -.315E-02 -.837E-15 0.639E-03
   -.402E+01 -.863E-15 0.134E+01   0.453E+01 0.469E-15 -.125E+01   -.507E+00 0.781E-20 -.698E-01   -.315E-02 0.587E-16 -.639E-03
   0.158E-11 0.536E-12 0.684E-11   -.178E-14 -.901E-14 -.675E-13   -.222E-15 -.237E-17 -.139E-16   0.470E-11 -.160E-11 -.271E-11

 POSITION                                       TOTAL-FORCE (eV/Angst)
      1.43096      0.70900      0.25029        -0.052204     -0.000000     -0.031829
      6.71121      0.70900      2.31942        -0.052204      0.000000      0.031829
      9.12955      2.12699      4.88913         0.052204      0.000000      0.031829
      3.84930      2.12699      2.81999         0.052204     -0.000000     -0.031829
      3.18281      0.70900      1.66945        -0.003726     -0.000000      0.005333
      8.46306      0.70900      0.90026        -0.003726     -0.000000     -0.005333
      7.37769      2.12699      3.46997         0.003726     -0.000000     -0.005333
      2.09744      2.12699      4.23916         0.003726      0.000000      0.005333
      4.69175      0.70900      3.86685        -0.003005      0.000000      0.005254
      9.97200      0.70900      3.84228        -0.003005     -0.000000     -0.005254
      5.86876      2.12699      1.27257         0.003005      0.000000     -0.005254
      0.58851      2.12699      1.29714         0.003005     -0.000000      0.005254
      1.14608      0.70900      2.80691        -0.003804      0.000000      0.017140
      6.42633      0.70900      4.90221        -0.003804      0.000000     -0.017140
      9.41443      2.12699      2.33250         0.003804      0.000000     -0.017140
      4.13418      2.12699      0.23720         0.003804      0.000000      0.017140
    total drift:                                0.000000     -0.000000      0.000000

  FREE ENERGIE OF THE ION-ELECTRON SYSTEM (eV)
  free  energy   TOTEN  =      -104.56113608 eV

  energy  without entropy=     -104.56113608  energy(sigma->0) =     -104.56113608

 writing wavefunctions

 total charge

[...]

 magnetization (x)

# of ion     s       p       d       tot
  1        0.038   0.027   3.762   3.827
  2       -0.038  -0.027  -3.762  -3.827
  3        0.038   0.027   3.762   3.827
  4       -0.038  -0.027  -3.762  -3.827
  5        0.006   0.051   0.000   0.058
  6       -0.006  -0.051   0.000  -0.058
  7        0.006   0.051   0.000   0.058
  8       -0.006  -0.051   0.000  -0.058
  9       -0.003   0.004   0.000   0.001
 10        0.003  -0.004   0.000  -0.001
 11       -0.003   0.004   0.000   0.001
 12        0.003  -0.004   0.000  -0.001
 13        0.000   0.001   0.000   0.002
 14       -0.000  -0.001   0.000  -0.002
 15        0.000   0.001   0.000   0.002
 16       -0.000  -0.001   0.000  -0.002
tot        0.000   0.000  -0.000   0.000

 BZINTS: Fermi energy:  2.936912; 80.000000 electrons
         Band energy:-237.857343;  BLOECHL correction:  0.000000