 vasp.5.3.3 18Dez12 (build May 12 2016 12:04:25) complex

 executed on             LinuxIFC date 2019.05.20  21:45:09

 INCAR:
 POTCAR:    PAW_PBE O 08Apr2002
 POTCAR:    PAW_PBE Mn 06Sep2000
 POTCAR:    PAW_PBE O 08Apr2002

 POTCAR:    PAW_PBE Mn 06Sep2000

  PAW_PBE O 08Apr2002                   :
  PAW_PBE Mn 06Sep2000                  :

 POSCAR: (Mn O2)12  (P1) ~ POSCAR_5_P1 1 1 0  sur
  positions in direct lattice
  velocities in cartesian coordinates
 exchange correlation table for  LEXCH =       14
   RHO(1)=    0.500       N(1)  =     2000
   RHO(2)=  100.500       N(2)  =     4000

 ion  position               nearest neighbor table
   1  0.000  0.500  0.241-  25 1.87  25 1.87  28 1.88
   2  0.000  0.500  0.457-  26 1.87  26 1.87  29 1.88
   3  0.000  0.500  0.673-  30 1.86  27 1.89  27 1.89
   4  0.500  0.303  0.175-  28 1.87  28 1.87  31 1.88
   5  0.500  0.697  0.175-  28 1.87  28 1.87  31 1.88
   6  0.500  0.303  0.392-  29 1.87  29 1.87  32 1.88
   7  0.500  0.697  0.392-  29 1.87  29 1.87  32 1.88
   8  0.500  0.304  0.608-  30 1.87  30 1.87  33 1.88
   9  0.500  0.696  0.608-  30 1.87  30 1.87  33 1.88
  10  0.000  0.500  0.326-  25 1.87  25 1.87  29 1.88
  11  0.000  0.500  0.543-  26 1.87  26 1.87  30 1.88
  12  0.000  0.500  0.757-  27 1.81  27 1.81
  13  0.000  0.000  0.349-  32 1.87  32 1.87  34 1.88
  14  0.000  0.000  0.565-  35 1.85  33 1.90  33 1.90
  15  0.000  0.000  0.780-  36 1.57
  16  0.500  0.803  0.283-  34 1.87  34 1.87  25 1.88
  17  0.500  0.197  0.283-  34 1.87  34 1.87  25 1.88
  18  0.500  0.803  0.500-  35 1.87  35 1.87  26 1.88
  19  0.500  0.197  0.500-  35 1.87  35 1.87  26 1.88
  20  0.500  0.809  0.715-  36 1.87  36 1.87  27 1.92
  21  0.500  0.191  0.715-  36 1.87  36 1.87  27 1.92
  22  0.000  0.000  0.218-  31 1.87  31 1.87  34 1.88
  23  0.000  0.000  0.434-  32 1.87  32 1.87  35 1.90
  24  0.000  0.000  0.650-  33 1.84  33 1.84  36 2.15
  25  0.500  0.500  0.283-   1 1.87  10 1.87   1 1.87  10 1.87  16 1.88  17 1.88
  26  0.500  0.500  0.500-   2 1.87   2 1.87  11 1.87  11 1.87  18 1.88  19 1.88
  27  0.500  0.500  0.717-  12 1.81  12 1.81   3 1.89   3 1.89  20 1.92  21 1.92
  28  0.000  0.500  0.175-   4 1.87   5 1.87   4 1.87   5 1.87   1 1.88
  29  0.000  0.500  0.392-   6 1.87   7 1.87   6 1.87   7 1.87  10 1.88   2 1.88
  30  0.000  0.500  0.608-   3 1.86   8 1.87   9 1.87   8 1.87   9 1.87  11 1.88
  31  0.500  0.000  0.175-  22 1.87  22 1.87   4 1.88   5 1.88
  32  0.500  0.000  0.392-  13 1.87  13 1.87  23 1.87  23 1.87   6 1.88   7 1.88
  33  0.500  0.000  0.609-  24 1.84  24 1.84   8 1.88   9 1.88  14 1.90  14 1.90
  34  0.000  0.000  0.283-  16 1.87  17 1.87  16 1.87  17 1.87  13 1.88  22 1.88
  35  0.000  0.000  0.501-  14 1.85  18 1.87  19 1.87  18 1.87  19 1.87  23 1.90
  36  0.000  0.000  0.725-  15 1.57  20 1.87  21 1.87  20 1.87  21 1.87  24 2.15

  LATTYP: Found a simple orthorhombic cell.
 ALAT       =     2.8411100000
 B/A-ratio  =     2.1794017127
 C/A-ratio  =    10.0579562213

  Lattice vectors:

 A1 = (   2.8411100000,   0.0000000000,   0.0000000000)
 A2 = (   0.0000000000,   6.1919200000,   0.0000000000)
 A3 = (   0.0000000000,   0.0000000000,  28.5757600000)

Analysis of symmetry for initial positions (statically):
 Subroutine PRICEL returns:
 Original cell was already a primitive cell.

 Routine SETGRP: Setting up the symmetry group for a
 simple orthorhombic supercell.

 Subroutine GETGRP returns: Found  4 space group operations
 (whereof  4 operations were pure point group operations)
 out of a pool of  8 trial point group operations.

The static configuration has the point symmetry C_2v.

Analysis of symmetry for dynamics (positions and initial velocities):
 Subroutine PRICEL returns:
 Original cell was already a primitive cell.

[...]

The dynamic configuration has the point symmetry C_2v.

Analysis of constrained symmetry for selective dynamics:
 Subroutine PRICEL returns:
 Original cell was already a primitive cell.

 Routine SETGRP: Setting up the symmetry group for a
 simple orthorhombic supercell.

 Subroutine GETGRP returns: Found  4 space group operations
 (whereof  4 operations were pure point group operations)
 out of a pool of  8 trial point group operations.

The constrained configuration has the point symmetry C_2v.

Analysis of magnetic symmetry:

 Subroutine MAGSYM returns: Found  4 space group operations
 (whereof  4 operations were pure point group operations)
 out of a pool of  4 trial space group operations
 (whereof  4 operations were pure point group operations)
 and found also     1 'primitive' translations

The magnetic configuration has the point symmetry C_2v.

 irot  :   1
 isymop:   1   0   0
           0   1   0
           0   0   1

 gtrans:     0.0000000     0.0000000     0.0000000

 ptrans:     0.0000000     0.0000000     0.0000000
 rotmap:
 (   1->   1)  (   2->   2)  (   3->   3)  (   4->   4)  (   5->   5)
 (   6->   6)  (   7->   7)  (   8->   8)  (   9->   9)  (  10->  10)
 (  11->  11)  (  12->  12)  (  13->  13)  (  14->  14)  (  15->  15)
 (  16->  16)  (  17->  17)  (  18->  18)  (  19->  19)  (  20->  20)
 (  21->  21)  (  22->  22)  (  23->  23)  (  24->  24)  (  25->  25)
 (  26->  26)  (  27->  27)  (  28->  28)  (  29->  29)  (  30->  30)
 (  31->  31)  (  32->  32)  (  33->  33)  (  34->  34)  (  35->  35)
 (  36->  36)

[...]

 irot  :   4
 isymop:  -1   0   0
           0   1   0
           0   0   1

 gtrans:     0.0000000     0.0000000     0.0000000

 ptrans:     0.0000000     0.0000000     0.0000000
 rotmap:
 (   1->   1)  (   2->   2)  (   3->   3)  (   4->   4)  (   5->   5)
 (   6->   6)  (   7->   7)  (   8->   8)  (   9->   9)  (  10->  10)
 (  11->  11)  (  12->  12)  (  13->  13)  (  14->  14)  (  15->  15)
 (  16->  16)  (  17->  17)  (  18->  18)  (  19->  19)  (  20->  20)
 (  21->  21)  (  22->  22)  (  23->  23)  (  24->  24)  (  25->  25)
 (  26->  26)  (  27->  27)  (  28->  28)  (  29->  29)  (  30->  30)
 (  31->  31)  (  32->  32)  (  33->  33)  (  34->  34)  (  35->  35)
 (  36->  36)

 KPOINTS: Automatic mesh

Automatic generation of k-mesh.
Space group operators:
 irot       det(A)        alpha          n_x          n_y          n_z        tau_x        tau_y        tau_z
    1     1.000000     0.000000     1.000000     0.000000     0.000000     0.000000     0.000000     0.000000
    2     1.000000   180.000000     0.000000     0.000000     1.000000     0.000000     0.000000     0.000000
    3    -1.000000   180.000000     0.000000     1.000000     0.000000     0.000000     0.000000     0.000000
    4    -1.000000   180.000000     1.000000     0.000000     0.000000     0.000000     0.000000     0.000000

 Subroutine IBZKPT returns following result:

 Found     15 irreducible k-points:

 Following reciprocal coordinates:
            Coordinates               Weight
  0.000000  0.000000  0.000000      1.000000
  0.111111  0.000000  0.000000      2.000000
  0.222222  0.000000  0.000000      2.000000
  0.333333  0.000000  0.000000      2.000000
  0.444444  0.000000  0.000000      2.000000
  0.000000  0.200000  0.000000      2.000000
  0.111111  0.200000  0.000000      4.000000
  0.222222  0.200000  0.000000      4.000000
  0.333333  0.200000  0.000000      4.000000
  0.444444  0.200000  0.000000      4.000000
  0.000000  0.400000  0.000000      2.000000
  0.111111  0.400000  0.000000      4.000000
  0.222222  0.400000  0.000000      4.000000
  0.333333  0.400000  0.000000      4.000000
  0.444444  0.400000  0.000000      4.000000

 Following cartesian coordinates:
            Coordinates               Weight
  0.000000  0.000000  0.000000      1.000000
  0.039108  0.000000  0.000000      2.000000
  0.078217  0.000000  0.000000      2.000000
  0.117325  0.000000  0.000000      2.000000
  0.156433  0.000000  0.000000      2.000000
  0.000000  0.032300  0.000000      2.000000
  0.039108  0.032300  0.000000      4.000000
  0.078217  0.032300  0.000000      4.000000
  0.117325  0.032300  0.000000      4.000000
  0.156433  0.032300  0.000000      4.000000
  0.000000  0.064600  0.000000      2.000000
  0.039108  0.064600  0.000000      4.000000
  0.078217  0.064600  0.000000      4.000000
  0.117325  0.064600  0.000000      4.000000
  0.156433  0.064600  0.000000      4.000000

 TETIRR: Found    115 inequivalent tetrahedra from      270

 I would recommend the setting:
   dimension x,y,z NGX =    16 NGY =   35 NGZ =  159
 SYSTEM =  (Mn O2)12  (P1) ~ POSCAR_5_P1 1 1 0  su
 POSCAR =  (Mn O2)12  (P1) ~ POSCAR_5_P1 1 1 0  sur

 Startparameter for this run:
   NWRITE =      1    write-flag & timer
   PREC   = normal    normal or accurate (medium, high low for compatibility)
   ISTART =      0    job   : 0-new  1-cont  2-samecut
   ICHARG =      2    charge: 1-file 2-atom 10-const
   ISPIN  =      2    spin polarized calculation?
   LNONCOLLINEAR =      F non collinear calculations
   LSORBIT =      F    spin-orbit coupling
   INIWAV =      1    electr: 0-lowe 1-rand  2-diag
   LASPH  =      F    aspherical Exc in radial PAW
   METAGGA=      F    non-selfconsistent MetaGGA calc.

 Electronic Relaxation 1
   ENCUT  =  520.0 eV  38.22 Ry    6.18 a.u.   5.28 11.51 53.13*2*pi/ulx,y,z
   ENINI  =  520.0     initial cutoff
   ENAUG  =  605.4 eV  augmentation charge cutoff
   NELM   =     60;   NELMIN=  2; NELMDL= -5     # of ELM steps
   EDIFF  = 0.1E-03   stopping-criterion for ELM
   LREAL  =      F    real-space projection
   NLSPLINE    = F    spline interpolate recip. space projectors
   LCOMPAT=      F    compatible to vasp.4.4
   GGA_COMPAT  = T    GGA compatible to vasp.4.4-vasp.4.6
   LMAXPAW     = -100 max onsite density
   LMAXMIX     =    2 max onsite mixed and CHGCAR
   VOSKOWN=      1    Vosko Wilk Nusair interpolation
   ROPT   =    0.00000   0.00000
 Ionic relaxation
   EDIFFG = 0.1E-02   stopping-criterion for IOM
   NSW    =      0    number of steps for IOM
   NBLOCK =      1;   KBLOCK =      1    inner block; outer block
   IBRION =     -1    ionic relax: 0-MD 1-quasi-New 2-CG
   NFREE  =      0    steps in history (QN), initial steepest desc. (CG)
   ISIF   =      2    stress and relaxation
   IWAVPR =     10    prediction:  0-non 1-charg 2-wave 3-comb
   ISYM   =      2    0-nonsym 1-usesym 2-fastsym
   LCORR  =      T    Harris-Foulkes like correction to forces

   POTIM  = 0.5000    time-step for ionic-motion
   TEIN   =    0.0    initial temperature
   TEBEG  =    0.0;   TEEND  =   0.0 temperature during run
   SMASS  =  -3.00    Nose mass-parameter (am)
   estimated Nose-frequenzy (Omega)   =  0.10E-29 period in steps =****** mass=  -0.184E-27a.u.
   SCALEE = 1.0000    scale energy and forces
   NPACO  =    256;   APACO  = 16.0  distance and # of slots for P.C.
   PSTRESS=    0.0 pullay stress

  Mass of Ions in am
   POMASS =  16.00 54.94
  Ionic Valenz
   ZVAL   =   6.00  7.00
  Atomic Wigner-Seitz radii
  virtual crystal weights
   VCA    =   1.00  1.00
   NELECT =     228.0000    total number of electrons
   NUPDOWN=      -1.0000    fix difference up-down

 DOS related values:
   EMIN   =  10.00;   EMAX   =-10.00  energy-range for DOS
   EFERMI =   0.00
   ISMEAR =    -5;   SIGMA  =   0.20  broadening in eV -4-tet -1-fermi 0-gaus
[...]
  free energy    TOTEN  =      -314.14646639 eV

  energy without entropy =     -314.14646639  energy(sigma->0) =     -314.14646639

 average (electrostatic) potential at core
  the test charge radii are     0.7215  1.0210
  (the norm of the test charge is              1.0000)
       1 -74.4752       2 -74.8312       3 -75.7369       4 -74.8431       5 -74.8431
       6 -73.7677       7 -73.7677       8 -75.5156       9 -75.5156      10 -74.3082
      11 -75.6443      12 -76.7181      13 -73.8796      14 -75.0144      15 -75.3747
      16 -74.1444      17 -74.1444      18 -75.9995      19 -75.9995      20 -74.9544
      21 -74.9544      22 -75.1233      23 -73.9432      24 -75.3613      25 -48.9910
      26 -50.2697      27 -50.9559      28 -49.2284      29 -47.2394      30 -51.5991
      31 -48.9085      32 -47.8504      33 -51.0062      34 -48.9593      35 -55.2154
      36 -50.1539

 E-fermi :   0.6715     XC(G=0):  -7.5599     alpha+bet : -7.6116

 spin component 1

 k-point   1 :       0.0000    0.0000    0.0000
  band No.  band energies     occupation
      1     -19.9800      1.00000
      2     -19.5713      1.00000
      3     -19.1919      1.00000
      4     -18.8852      1.00000
      5     -18.8625      1.00000
      6     -18.4363      1.00000
      7     -18.3117      1.00000
      8     -18.1891      1.00000
      9     -18.1462      1.00000
     10     -18.0413      1.00000
     11     -17.8986      1.00000
     12     -17.8426      1.00000
     13     -17.7264      1.00000
     14     -17.6276      1.00000
     15     -17.5097      1.00000
     16     -17.3538      1.00000
     17     -17.3216      1.00000
     18     -17.2904      1.00000
     19     -17.1076      1.00000
     20     -16.8313      1.00000
     21     -16.6145      1.00000
     22     -16.5002      1.00000
     23     -16.3294      1.00000
     24     -16.1517      1.00000
     25      -7.7489      1.00000
     26      -7.6207      1.00000
     27      -7.2228      1.00000
     28      -7.1449      1.00000
     29      -6.8772      1.00000
     30      -6.7325      1.00000
     31      -6.3775      1.00000
     32      -6.3555      1.00000
     33      -6.1364      1.00000
     34      -6.1269      1.00000
     35      -5.9736      1.00000
     36      -5.8486      1.00000
     37      -5.8393      1.00000
     38      -5.7370      1.00000
     39      -5.7318      1.00000
     40      -5.6798      1.00000
     41      -5.3446      1.00000
     42      -5.1726      1.00000
     43      -5.1403      1.00000
     44      -4.8460      1.00000
     45      -4.8172      1.00000
     46      -4.7329      1.00000
     47      -4.7030      1.00000
     48      -4.6905      1.00000
     49      -4.5324      1.00000
     50      -4.1576      1.00000
     51      -4.0980      1.00000
     52      -4.0230      1.00000
     53      -3.9441      1.00000
     54      -3.8992      1.00000
     55      -3.8899      1.00000
     56      -3.8488      1.00000
     57      -3.7620      1.00000
     58      -3.6956      1.00000
     59      -3.5208      1.00000
     60      -3.5157      1.00000
[...]
    122       1.3188      0.00000
    123       1.4507      0.00000
    124       1.4885      0.00000
    125       1.6805      0.00000
    126       1.9398      0.00000
    127       2.0421      0.00000
    128       2.0624      0.00000
    129       2.4403      0.00000
    130       2.4592      0.00000
    131       2.4920      0.00000
    132       2.5275      0.00000
    133       2.5800      0.00000
    134       2.6399      0.00000
    135       2.7439      0.00000
    136       3.5577      0.00000

[...]

 spin component 2

[...]

 k-point  15 :       0.4444    0.4000    0.0000
  band No.  band energies     occupation
      1     -19.2228      1.00000
      2     -18.7743      1.00000
      3     -18.6996      1.00000
      4     -18.6152      1.00000
      5     -18.4661      1.00000
      6     -18.3424      1.00000
      7     -18.2920      1.00000
      8     -18.2198      1.00000
      9     -18.1034      1.00000
     10     -17.7748      1.00000
     11     -17.6501      1.00000
     12     -17.5855      1.00000
     13     -17.5454      1.00000
     14     -17.4027      1.00000
     15     -17.3876      1.00000
     16     -17.1573      1.00000
     17     -17.0544      1.00000
     18     -16.9089      1.00000
     19     -16.8207      1.00000
     20     -16.8148      1.00000
     21     -16.7354      1.00000
     22     -16.4677      1.00000
     23     -16.3485      1.00000
     24     -16.3015      1.00000
     25     -10.8338      1.00000
     26      -8.6294      1.00000
     27      -7.5062      1.00000
     28      -7.3025      1.00000
     29      -7.0886      1.00000
     30      -6.8203      1.00000
     31      -6.7335      1.00000
     32      -6.6471      1.00000
     33      -6.4060      1.00000
     34      -6.2903      1.00000
     35      -6.0076      1.00000
     36      -5.7615      1.00000
     37      -5.7167      1.00000
     38      -5.6474      1.00000
     39      -5.4963      1.00000
     40      -5.4734      1.00000
     41      -5.4478      1.00000
     42      -5.3431      1.00000
     43      -5.2861      1.00000
     44      -5.2412      1.00000
     45      -5.1772      1.00000
     46      -5.0885      1.00000
     47      -5.0686      1.00000
     48      -4.9147      1.00000
     49      -4.9095      1.00000
     50      -4.8194      1.00000
     51      -4.7812      1.00000
     52      -4.7092      1.00000
     53      -4.6712      1.00000
     54      -4.6117      1.00000
     55      -4.5472      1.00000
     56      -4.4575      1.00000
     57      -4.3618      1.00000
     58      -4.2767      1.00000
     59      -4.2266      1.00000
     60      -4.1968      1.00000
[...]
    122       1.1534      0.00000
    123       1.2210      0.00000
    124       1.6377      0.00000
    125       1.8292      0.00000
    126       1.8568      0.00000
    127       1.8823      0.00000
    128       1.9514      0.00000
    129       2.0757      0.00000
    130       2.3531      0.00000
    131       2.4252      0.00000
    132       2.4662      0.00000
    133       2.5466      0.00000
    134       2.5848      0.00000
    135       2.7193      0.00000
    136       2.9467      0.00000

 soft charge-density along one line, spin component           1
         0         1         2         3         4         5         6         7         8         9
 total charge-density along one line

 soft charge-density along one line, spin component           2
         0         1         2         3         4         5         6         7         8         9
 total charge-density along one line

------------------------ aborting loop because EDIFF is reached ----------------------------------------

  FORCE on cell =-STRESS in cart. coord.  units (eV):
  Direction    XX          YY          ZZ          XY          YZ          ZX
  Alpha Z   681.33398   681.33398   681.33398
  Ewald   75603.26618 74205.03766-84045.57944    -0.00000     0.00000     0.00000
  Hartree 83956.89433 83252.38985-81272.93970    -0.00000    -0.00000    -0.00000
  E(xc)   -1116.86368 -1117.70304 -1115.69932     0.00000     0.00000    -0.00000
  Local  ************************160626.56107    -0.00000    -0.00000     0.00000
  n-local  -344.77424  -340.80112  -349.35914     1.22497     0.00454    -0.00636
  augment   513.47071   516.49498   522.75613     0.00000    -0.00000    -0.00000
  Kinetic  3897.46024  3996.11031  3994.01570    -2.05493    -0.00248     0.00491
  Fock        0.00000     0.00000     0.00000     0.00000     0.00000     0.00000
  Total    2141.89745  2036.36712  -958.91072     0.00000     0.00000     0.00000
  in kB    6826.49978  6490.16120 -3056.17051     0.00000     0.00000     0.00000

 VOLUME and BASIS-vectors are now :
  energy-cutoff  :      520.00
  volume of cell :      502.70
      direct lattice vectors                 reciprocal lattice vectors
     2.841110000  0.000000000  0.000000000     0.351975108  0.000000000  0.000000000
     0.000000000  6.191920000  0.000000000     0.000000000  0.161500795  0.000000000
     0.000000000  0.000000000 28.575760000     0.000000000  0.000000000  0.034994695

  length of vectors
     2.841110000  6.191920000 28.575760000     0.351975108  0.161500795  0.034994695

 FORCES acting on ions
    electron-ion (+dipol)            ewald-force                    non-local-force                 convergence-correction
   0.201E-14 0.624E-12 0.174E+04   0.153E-14 -.142E-13 -.172E+04   0.363E-21 -.522E-21 -.348E+00   -.225E-11 0.675E-12 -.208E+02
   0.472E-14 0.936E-12 0.518E+03   -.225E-13 0.178E-13 -.841E+02   -.705E-19 -.944E-20 0.799E+01   -.659E-12 0.111E-10 -.441E+03
   -.279E-14 0.670E-12 -.164E+04   -.116E-13 -.126E-14 0.156E+04   0.349E-20 -.362E-21 0.257E+01   0.323E-11 0.156E-10 0.811E+02
   0.990E-13 0.706E+02 0.206E+04   -.475E-13 -.702E+02 -.213E+04   -.103E-16 0.311E+01 -.585E+01   -.606E-11 -.455E+01 0.764E+02
   0.931E-13 -.706E+02 0.206E+04   0.580E-13 0.702E+02 -.213E+04   0.100E-16 -.311E+01 -.585E+01   0.576E-11 0.455E+01 0.764E+02
   0.106E-12 0.117E+02 0.835E+03   -.495E-13 -.422E+02 -.539E+03   0.554E-17 0.363E+01 0.528E+00   0.787E-11 0.264E+02 -.296E+03
   0.828E-13 -.117E+02 0.835E+03   0.704E-13 0.422E+02 -.539E+03   -.592E-17 -.363E+01 0.528E+00   -.104E-10 -.264E+02 -.296E+03
   0.813E-13 0.532E+02 -.105E+04   0.224E-14 -.458E+02 0.110E+04   0.381E-16 0.401E+01 0.442E-03   0.540E-11 -.117E+02 -.483E+02
   0.701E-13 -.532E+02 -.105E+04   -.299E-13 0.458E+02 0.110E+04   -.446E-16 -.401E+01 0.442E-03   -.281E-11 0.117E+02 -.483E+02
   0.162E-14 0.103E-11 0.109E+04   -.566E-15 -.248E-14 -.995E+03   -.221E-19 -.999E-20 -.690E+01   -.363E-11 -.500E-12 -.861E+02
   -.423E-14 0.716E-12 -.393E+03   -.714E-14 0.160E-13 0.645E+03   0.633E-21 0.411E-21 -.194E+01   -.147E-10 -.459E-12 -.249E+03
   -.196E-14 0.661E-12 -.248E+04   -.873E-14 -.144E-14 0.233E+04   -.389E-19 0.150E-19 -.267E+02   -.218E-11 0.615E-11 0.176E+03
   0.497E-14 0.147E-12 0.104E+04   0.236E-14 -.211E-14 -.904E+03   0.304E-20 -.509E-21 0.129E+01   -.383E-11 -.146E-10 -.136E+03
   -.215E-14 -.202E-12 -.649E+03   -.179E-13 -.225E-13 0.745E+03   0.188E-19 0.281E-19 0.746E+01   0.607E-11 0.171E-10 -.101E+03
   0.675E-14 0.716E-12 -.247E+04   -.399E-14 0.159E-14 0.236E+04   0.316E-20 0.268E-20 -.326E+02   0.577E-11 -.115E-10 0.141E+03
   0.951E-13 0.255E+02 0.143E+04   -.309E-13 -.393E+02 -.136E+04   0.230E-16 0.360E+01 -.713E+00   0.228E-11 0.103E+02 -.653E+02
   0.884E-13 -.255E+02 0.143E+04   0.296E-13 0.393E+02 -.136E+04   -.243E-16 -.360E+01 -.713E+00   -.830E-12 -.103E+02 -.653E+02
   0.107E-12 0.141E+03 0.552E+02   0.130E-13 -.419E+02 0.278E+03   0.246E-17 -.239E+01 0.235E+01   0.129E-10 -.989E+02 -.335E+03
   0.896E-13 -.141E+03 0.552E+02   -.101E-13 0.419E+02 0.278E+03   0.185E-17 0.239E+01 0.235E+01   -.101E-10 0.989E+02 -.335E+03
   0.926E-13 0.181E+01 -.200E+04   -.839E-14 -.637E+02 0.186E+04   -.165E-17 0.328E+01 0.469E+01   0.116E-11 0.577E+02 0.135E+03
   0.830E-13 -.181E+01 -.200E+04   -.155E-13 0.637E+02 0.186E+04   -.118E-16 -.328E+01 0.469E+01   -.365E-12 -.577E+02 0.135E+03
   0.154E-14 0.881E-12 0.185E+04   -.261E-13 -.766E-15 -.184E+04   -.291E-20 0.441E-20 -.992E+01   0.673E-11 -.109E-10 0.147E+01
   -.122E-13 -.409E-12 0.694E+03   -.806E-14 -.645E-14 -.172E+03   0.367E-21 0.281E-19 -.390E+01   -.472E-11 0.513E-11 -.518E+03
   -.225E-14 0.101E-11 -.157E+04   0.399E-14 0.544E-14 0.150E+04   0.242E-19 0.154E-19 -.136E+02   -.101E-10 -.331E-11 0.877E+02
   0.383E-13 0.214E-12 0.166E+04   -.159E-13 -.254E-13 -.158E+04   -.651E-20 0.307E-19 -.448E+00   0.792E-12 -.427E-11 -.743E+02
   0.397E-13 -.113E-12 0.662E+02   -.154E-14 0.244E-13 0.327E+03   -.147E-20 0.216E-20 0.102E+01   0.660E-11 0.801E-11 -.394E+03
   0.586E-13 0.706E-13 -.238E+04   0.196E-13 -.323E-14 0.224E+04   0.246E-19 -.331E-19 -.892E+00   0.390E-11 0.122E-10 0.140E+03
   -.546E-14 0.384E-12 0.245E+04   -.265E-14 0.377E-13 -.253E+04   0.648E-20 -.560E-21 -.384E+01   0.411E-11 -.955E-11 0.880E+02
   0.732E-14 0.888E-12 0.966E+03   0.613E-14 0.330E-13 -.629E+03   -.506E-20 0.332E-19 -.123E+00   -.697E-11 0.115E-10 -.337E+03
   0.147E-13 0.344E-14 -.121E+04   0.157E-13 -.651E-15 0.128E+04   -.916E-20 0.149E-19 0.247E+00   0.327E-11 0.102E-10 -.680E+02
   0.256E-13 -.336E-13 0.250E+04   0.192E-13 -.328E-13 -.257E+04   0.105E-19 0.282E-21 -.477E+01   -.821E-11 -.753E-11 0.905E+02
   0.568E-14 0.327E-12 0.991E+03   0.156E-13 -.314E-13 -.629E+03   0.360E-20 0.141E-19 0.503E+00   0.211E-11 -.607E-11 -.363E+03
   0.500E-13 -.755E-13 -.126E+04   0.314E-13 0.300E-16 0.129E+04   0.135E-20 0.100E-20 -.853E+00   0.382E-12 0.109E-10 -.329E+02
   0.411E-14 -.448E-13 0.167E+04   -.545E-14 0.250E-13 -.159E+04   -.200E-19 -.387E-21 -.431E+00   0.412E-13 -.181E-10 -.778E+02
   0.149E-13 0.119E-12 0.593E+02   -.219E-13 0.221E-14 0.328E+03   -.133E-19 -.129E-18 0.199E+01   -.774E-12 0.356E-10 -.388E+03
   0.113E-13 -.115E-14 -.238E+04   0.315E-13 0.156E-14 0.222E+04   -.570E-20 -.109E-20 0.296E+01   0.299E-11 -.956E-11 0.161E+03
   0.135E-11 0.102E-10 0.347E+04   -.254E-13 0.713E-13 0.909E-12   -.177E-16 -.199E-19 -.792E+02   -.727E-11 0.214E-10 -.339E+04

 POSITION                                       TOTAL-FORCE (eV/Angst)
      0.00000      3.09596      6.87844        -0.000000     -0.000000     -1.931108
      0.00000      3.09596     13.07036         0.000000     -0.000000      1.382264
      0.00000      3.09596     19.24021        -0.000000      0.000000      0.010948
      1.42056      1.87844      5.00000         0.000000     -1.045357     -1.543228
      1.42056      4.31348      5.00000         0.000000      1.045357     -1.543228
      1.42056      1.87844     11.19192        -0.000000     -0.524542     -0.157064
      1.42056      4.31348     11.19192        -0.000000      0.524542     -0.157064
      1.42056      1.88146     17.38441        -0.000000     -0.239913     -0.428588
      1.42056      4.31046     17.38441         0.000000      0.239913     -0.428588
      0.00000      3.09596      9.31348        -0.000000     -0.000000     -1.105076
      0.00000      3.09596     15.50351        -0.000000     -0.000000      0.609391
      0.00000      3.09596     21.61783        -0.000000      0.000000     -2.171317
      0.00000      0.00000      9.97440        -0.000000     -0.000000     -1.329684
      0.00000      0.00000     16.15223        -0.000000     -0.000000      2.162604
      0.00000      0.00000     22.29426         0.000000      0.000000     -0.180447
      1.42056      4.97440      8.09596         0.000000      0.132948     -0.278086
      1.42056      1.21752      8.09596        -0.000000     -0.132948     -0.278086
      1.42056      4.97444     14.28525        -0.000000     -2.049324      0.331323
      1.42056      1.21748     14.28525         0.000000      2.049324      0.331323
      1.42056      5.01196     20.43960         0.000000     -0.921819     -0.446971
      1.42056      1.17996     20.43960         0.000000      0.921819     -0.446971
      0.00000      0.00000      6.21752         0.000000     -0.000000     -3.267258
      0.00000      0.00000     12.40944         0.000000      0.000000     -0.088918
      0.00000      0.00000     18.57849        -0.000000     -0.000000     -0.255379
      1.42056      3.09596      8.09596         0.000000      0.000000     -0.057695
      1.42056      3.09596     14.28522         0.000000      0.000000      0.173640
      1.42056      3.09596     20.48859         0.000000     -0.000000     -0.441008
      0.00000      3.09596      5.00000         0.000000      0.000000      5.853739
      0.00000      3.09596     11.19192         0.000000     -0.000000     -1.161643
      0.00000      3.09596     17.38470         0.000000      0.000000      0.105176
      1.42056      0.00000      5.00000        -0.000000      0.000000      6.509216
      1.42056      0.00000     11.19192         0.000000     -0.000000      0.442476
      1.42056      0.00000     17.40833        -0.000000      0.000000     -1.488007
      0.00000      0.00000      8.09596         0.000000      0.000000      0.942350
      0.00000      0.00000     14.30557        -0.000000      0.000000      1.201851
      0.00000      0.00000     20.72624         0.000000      0.000000     -0.870885
    total drift:                               -0.000000      0.000000      3.824127

  FREE ENERGIE OF THE ION-ELECTRON SYSTEM (eV)
  free  energy   TOTEN  =      -314.14646639 eV

  energy  without entropy=     -314.14646639  energy(sigma->0) =     -314.14646639

 BZINTS: Fermi energy:  0.671465;228.000000 electrons
         Band energy:***********;  BLOECHL correction: -0.024912