 vasp.5.3.3 18Dez12 (build May 12 2016 12:04:25) complex

 executed on             LinuxIFC date 2019.05.18  14:13:01

 INCAR:
 POTCAR:    PAW_PBE Mn 06Sep2000
 POTCAR:    PAW_PBE O 08Apr2002
 POTCAR:    PAW_PBE Mn 06Sep2000

 POTCAR:    PAW_PBE O 08Apr2002

  PAW_PBE Mn 06Sep2000                  :
  PAW_PBE O 08Apr2002                   :

 POSCAR: (Mn O2)4  (P1) ~ POSCAR_1 (VASP)
  positions in direct lattice
  velocities in cartesian coordinates
 exchange correlation table for  LEXCH =       14
   RHO(1)=    0.500       N(1)  =     2000
   RHO(2)=  100.500       N(2)  =     4000

 ion  position               nearest neighbor table
   1  0.000  0.000  0.000-   8 1.91   7 1.91   6 1.91   5 1.91  10 1.92   9 1.92   2 2.87   2 2.87
                             3 2.87   3 2.87   4 2.87   4 2.87
   2  0.000  0.500  0.000-   6 1.91   5 1.91   8 1.91   7 1.91  12 1.92  11 1.92   1 2.87   1 2.87
                             4 2.87   4 2.87   3 2.87   3 2.87
   3  0.500  0.000  0.000-  12 1.91  11 1.91  10 1.91   9 1.91   6 1.92   5 1.92   4 2.87   4 2.87
                             1 2.87   1 2.87   2 2.87   2 2.87
   4  0.500  0.500  0.000-  10 1.91   9 1.91  12 1.91  11 1.91   8 1.92   7 1.92   3 2.87   3 2.87
                             2 2.87   2 2.87   1 2.87   1 2.87
   5  0.192  0.813  0.136-   2 1.91   1 1.91   3 1.92
   6  0.808  0.187  0.864-   2 1.91   1 1.91   3 1.92
   7  0.192  0.313  0.136-   1 1.91   2 1.91   4 1.92
   8  0.808  0.687  0.864-   1 1.91   2 1.91   4 1.92
   9  0.692  0.813  0.136-   4 1.91   3 1.91   1 1.92
  10  0.308  0.187  0.864-   4 1.91   3 1.91   1 1.92
  11  0.692  0.313  0.136-   3 1.91   4 1.91   2 1.92
  12  0.308  0.687  0.864-   3 1.91   4 1.91   2 1.92

  LATTYP: Found a triclinic cell.
 ALAT       =     5.7437963701
 B/A-ratio  =     1.8905365620
 C/A-ratio  =     1.0003177098
 COS(alpha) =     0.0116310852
 COS(beta)  =     0.5001221666
 COS(gamma) =     0.6663927955

  Lattice vectors:

 A1 = (   2.9735415558,  -4.9141818850,  -0.0079848586)
 A2 = (   7.2354678326,  -4.0911097966,   6.9875319066)
 A3 = (  -2.7691231246,  -5.0342384119,   0.0237498512)

Analysis of symmetry for initial positions (statically):
 Subroutine PRICEL returns following result:

[...]

   4 primitive cells build up your supercell.

 Routine SETGRP: Setting up the symmetry group for a
 triclinic supercell.

 Subroutine GETGRP returns: Found  2 space group operations
 (whereof  2 operations were pure point group operations)
 out of a pool of  2 trial point group operations.

The static configuration has the point symmetry S_2 .

Analysis of symmetry for dynamics (positions and initial velocities):
 Subroutine PRICEL returns following result:

  LATTYP: Found a triclinic cell.
 ALAT       =     2.8720035817
 B/A-ratio  =     0.9999633020
 C/A-ratio  =     2.5029797964
 COS(alpha) =     0.0079745817
 COS(beta)  =     0.1902299434
 COS(gamma) =     0.4997006011

  Lattice vectors:

 A1 = (  -2.8713323402,  -0.0600282634,   0.0158673549)
 A2 = (  -1.4867707779,   2.4570909425,   0.0039924293)
 A3 = (  -1.3905939365,  -0.7630438250,  -7.0113841200)

   4 primitive cells build up your supercell.

 Routine SETGRP: Setting up the symmetry group for a
 triclinic supercell.

 Subroutine GETGRP returns: Found  2 space group operations
 (whereof  2 operations were pure point group operations)
 out of a pool of  2 trial point group operations.

The dynamic configuration has the point symmetry S_2 .

Analysis of magnetic symmetry:

 Subroutine MAGSYM returns: Found  2 space group operations
 (whereof  2 operations were pure point group operations)
 out of a pool of  2 trial space group operations
 (whereof  2 operations were pure point group operations)
 and found also     4 'primitive' translations

The magnetic configuration has the point symmetry S_2 .

 irot  :   1
 isymop:   1   0   0
           0   1   0
           0   0   1

 gtrans:     0.0000000     0.0000000     0.0000000

 ptrans:     0.0000000     0.0000000     0.0000000
 rotmap:
 (   1->   1)  (   2->   2)  (   3->   3)  (   4->   4)  (   5->   5)
 (   6->   6)  (   7->   7)  (   8->   8)  (   9->   9)  (  10->  10)
 (  11->  11)  (  12->  12)

[...]

 irot  :   2
 isymop:  -1   0   0
           0  -1   0
           0   0  -1

 gtrans:     0.0000000     0.0000000     0.0000000

[...]

 ptrans:     0.5000000     0.5000000     0.0000000
 rotmap:
 (   1->   4)  (   2->   3)  (   3->   2)  (   4->   1)  (   5->  12)
 (   6->  11)  (   7->  10)  (   8->   9)  (   9->   8)  (  10->   7)
 (  11->   6)  (  12->   5)

 KPOINTS: Automatic mesh

Automatic generation of k-mesh.
Space group operators:
 irot       det(A)        alpha          n_x          n_y          n_z        tau_x        tau_y        tau_z
    1     1.000000     0.000000     1.000000     0.000000     0.000000     0.000000     0.000000     0.000000
    2    -1.000000     0.000000     1.000000     0.000000     0.000000     0.000000     0.000000     0.000000

 Subroutine IBZKPT returns following result:

 Found     76 irreducible k-points:

 Following reciprocal coordinates:
            Coordinates               Weight
  0.000000  0.000000  0.000000      1.000000
  0.166667 -0.000000 -0.000000      2.000000
  0.333333 -0.000000 -0.000000      2.000000
  0.500000 -0.000000 -0.000000      1.000000
  0.000000  0.166667  0.000000      2.000000
  0.166667  0.166667  0.000000      2.000000
  0.333333  0.166667  0.000000      2.000000
  0.500000  0.166667  0.000000      2.000000
 -0.333333  0.166667  0.000000      2.000000
 -0.166667  0.166667  0.000000      2.000000
  0.000000  0.333333  0.000000      2.000000
  0.166667  0.333333  0.000000      2.000000
  0.333333  0.333333  0.000000      2.000000
  0.500000  0.333333  0.000000      2.000000
 -0.333333  0.333333 -0.000000      2.000000
 -0.166667  0.333333 -0.000000      2.000000
  0.000000  0.500000 -0.000000      1.000000
  0.166667  0.500000 -0.000000      2.000000
  0.333333  0.500000  0.000000      2.000000
  0.500000  0.500000  0.000000      1.000000
  0.000000 -0.000000  0.250000      2.000000
  0.166667 -0.000000  0.250000      2.000000
  0.333333 -0.000000  0.250000      2.000000
  0.500000 -0.000000  0.250000      2.000000
 -0.333333  0.000000  0.250000      2.000000
 -0.166667  0.000000  0.250000      2.000000
  0.000000  0.166667  0.250000      2.000000
  0.166667  0.166667  0.250000      2.000000
  0.333333  0.166667  0.250000      2.000000
  0.500000  0.166667  0.250000      2.000000
 -0.333333  0.166667  0.250000      2.000000
 -0.166667  0.166667  0.250000      2.000000
  0.000000  0.333333  0.250000      2.000000
  0.166667  0.333333  0.250000      2.000000
  0.333333  0.333333  0.250000      2.000000
  0.500000  0.333333  0.250000      2.000000
 -0.333333  0.333333  0.250000      2.000000
 -0.166667  0.333333  0.250000      2.000000
 -0.000000  0.500000  0.250000      2.000000
  0.166667  0.500000  0.250000      2.000000
  0.333333  0.500000  0.250000      2.000000
  0.500000  0.500000  0.250000      2.000000
 -0.333333  0.500000  0.250000      2.000000
 -0.166667  0.500000  0.250000      2.000000
 -0.000000 -0.333333  0.250000      2.000000
  0.166667 -0.333333  0.250000      2.000000
  0.333333 -0.333333  0.250000      2.000000
  0.500000 -0.333333  0.250000      2.000000
 -0.333333 -0.333333  0.250000      2.000000
 -0.166667 -0.333333  0.250000      2.000000
  0.000000 -0.166667  0.250000      2.000000
  0.166667 -0.166667  0.250000      2.000000
  0.333333 -0.166667  0.250000      2.000000
  0.500000 -0.166667  0.250000      2.000000
 -0.333333 -0.166667  0.250000      2.000000
 -0.166667 -0.166667  0.250000      2.000000
  0.000000 -0.000000  0.500000      1.000000
  0.166667 -0.000000  0.500000      2.000000
  0.333333 -0.000000  0.500000      2.000000
  0.500000 -0.000000  0.500000      1.000000
  0.000000  0.166667  0.500000      2.000000
  0.166667  0.166667  0.500000      2.000000
  0.333333  0.166667  0.500000      2.000000
  0.500000  0.166667  0.500000      2.000000
 -0.333333  0.166667  0.500000      2.000000
 -0.166667  0.166667  0.500000      2.000000
  0.000000  0.333333  0.500000      2.000000
  0.166667  0.333333  0.500000      2.000000
  0.333333  0.333333  0.500000      2.000000
  0.500000  0.333333  0.500000      2.000000
 -0.333333  0.333333  0.500000      2.000000
 -0.166667  0.333333  0.500000      2.000000
  0.000000  0.500000  0.500000      1.000000
  0.166667  0.500000  0.500000      2.000000
  0.333333  0.500000  0.500000      2.000000
  0.500000  0.500000  0.500000      1.000000

 Following cartesian coordinates:
            Coordinates               Weight
  0.000000  0.000000  0.000000      1.000000
  0.028684  0.017349  0.004308      2.000000
  0.057367  0.034699  0.008617      2.000000
  0.086051  0.052048  0.012925      1.000000
 -0.000719  0.033486 -0.003502      2.000000
  0.027964  0.050835  0.000807      2.000000
  0.056648  0.068184  0.005115      2.000000
  0.085331  0.085534  0.009424      2.000000
 -0.058087 -0.001213 -0.012118      2.000000
 -0.029403  0.016137 -0.007810      2.000000
 -0.001439  0.066972 -0.007003      2.000000
  0.027245  0.084321 -0.002695      2.000000
  0.055928  0.101670  0.001614      2.000000
  0.084612  0.119020  0.005922      2.000000
 -0.058806  0.032273 -0.015620      2.000000
 -0.030122  0.049622 -0.011312      2.000000
 -0.002158  0.100457 -0.010505      1.000000
  0.026525  0.117807 -0.006196      2.000000
  0.055209  0.135156 -0.001888      2.000000
  0.083893  0.152505  0.002421      1.000000
  0.000196  0.000060  0.035611      2.000000
  0.028879  0.017410  0.039919      2.000000
  0.057563  0.034759  0.044228      2.000000
  0.086246  0.052108  0.048536      2.000000
 -0.057172 -0.034638  0.026994      2.000000
 -0.028488 -0.017289  0.031303      2.000000
 -0.000524  0.033546  0.032109      2.000000
  0.028160  0.050896  0.036418      2.000000
  0.056843  0.068245  0.040726      2.000000
  0.085527  0.085594  0.045035      2.000000
 -0.057891 -0.001152  0.023493      2.000000
 -0.029208  0.016197  0.027801      2.000000
 -0.001243  0.067032  0.028608      2.000000
  0.027440  0.084381  0.032916      2.000000
  0.056124  0.101731  0.037225      2.000000
  0.084808  0.119080  0.041533      2.000000
 -0.058611  0.032334  0.019991      2.000000
 -0.029927  0.049683  0.024299      2.000000
 -0.001963  0.100518  0.025106      2.000000
  0.026721  0.117867  0.029415      2.000000
  0.055405  0.135217  0.033723      2.000000
  0.084088  0.152566  0.038031      2.000000
 -0.059330  0.065819  0.016489      2.000000
 -0.030646  0.083169  0.020798      2.000000
  0.001634 -0.066911  0.042614      2.000000
  0.030318 -0.049562  0.046922      2.000000
  0.059002 -0.032213  0.051231      2.000000
  0.087685 -0.014863  0.055539      2.000000
 -0.055733 -0.101610  0.033997      2.000000
 -0.027049 -0.084260  0.038306      2.000000
  0.000915 -0.033425  0.039112      2.000000
  0.029599 -0.016076  0.043421      2.000000
  0.058282  0.001273  0.047729      2.000000
  0.086966  0.018623  0.052038      2.000000
 -0.056452 -0.068124  0.030496      2.000000
 -0.027769 -0.050775  0.034804      2.000000
  0.000391  0.000121  0.071222      1.000000
[...]
 k-point  9 :  -0.3333 0.1667 0.0000  plane waves:    5399
 k-point 10 :  -0.1667 0.1667 0.0000  plane waves:    5408
 k-point 11 :   0.0000 0.3333 0.0000  plane waves:    5401
 k-point 12 :   0.1667 0.3333 0.0000  plane waves:    5402
 k-point 13 :   0.3333 0.3333 0.0000  plane waves:    5394
 k-point 14 :   0.5000 0.3333 0.0000  plane waves:    5408
 k-point 15 :  -0.3333 0.3333-0.0000  plane waves:    5394
 k-point 16 :  -0.1667 0.3333-0.0000  plane waves:    5400
 k-point 17 :   0.0000 0.5000-0.0000  plane waves:    5386
 k-point 18 :   0.1667 0.5000-0.0000  plane waves:    5403
 k-point 19 :   0.3333 0.5000 0.0000  plane waves:    5390
 k-point 20 :   0.5000 0.5000 0.0000  plane waves:    5384
 k-point 21 :   0.0000-0.0000 0.2500  plane waves:    5422
 k-point 22 :   0.1667-0.0000 0.2500  plane waves:    5415
 k-point 23 :   0.3333-0.0000 0.2500  plane waves:    5402
 k-point 24 :   0.5000-0.0000 0.2500  plane waves:    5383
 k-point 25 :  -0.3333 0.0000 0.2500  plane waves:    5391
 k-point 26 :  -0.1667 0.0000 0.2500  plane waves:    5403
 k-point 27 :   0.0000 0.1667 0.2500  plane waves:    5419
 k-point 28 :   0.1667 0.1667 0.2500  plane waves:    5397
 k-point 29 :   0.3333 0.1667 0.2500  plane waves:    5403
 k-point 30 :   0.5000 0.1667 0.2500  plane waves:    5401
 k-point 31 :  -0.3333 0.1667 0.2500  plane waves:    5396
 k-point 32 :  -0.1667 0.1667 0.2500  plane waves:    5417
 k-point 33 :   0.0000 0.3333 0.2500  plane waves:    5391
 k-point 34 :   0.1667 0.3333 0.2500  plane waves:    5414
 k-point 35 :   0.3333 0.3333 0.2500  plane waves:    5401
 k-point 36 :   0.5000 0.3333 0.2500  plane waves:    5402
 k-point 37 :  -0.3333 0.3333 0.2500  plane waves:    5398
 k-point 38 :  -0.1667 0.3333 0.2500  plane waves:    5395
 k-point 39 :  -0.0000 0.5000 0.2500  plane waves:    5397
 k-point 40 :   0.1667 0.5000 0.2500  plane waves:    5397
 k-point 41 :   0.3333 0.5000 0.2500  plane waves:    5395
 k-point 42 :   0.5000 0.5000 0.2500  plane waves:    5394
 k-point 43 :  -0.3333 0.5000 0.2500  plane waves:    5419
 k-point 44 :  -0.1667 0.5000 0.2500  plane waves:    5405
 k-point 45 :  -0.0000-0.3333 0.2500  plane waves:    5393
 k-point 46 :   0.1667-0.3333 0.2500  plane waves:    5379
 k-point 47 :   0.3333-0.3333 0.2500  plane waves:    5394
 k-point 48 :   0.5000-0.3333 0.2500  plane waves:    5400
 k-point 49 :  -0.3333-0.3333 0.2500  plane waves:    5390
 k-point 50 :  -0.1667-0.3333 0.2500  plane waves:    5395
 k-point 51 :   0.0000-0.1667 0.2500  plane waves:    5413
 k-point 52 :   0.1667-0.1667 0.2500  plane waves:    5410
 k-point 53 :   0.3333-0.1667 0.2500  plane waves:    5402
 k-point 54 :   0.5000-0.1667 0.2500  plane waves:    5403
 k-point 55 :  -0.3333-0.1667 0.2500  plane waves:    5405
 k-point 56 :  -0.1667-0.1667 0.2500  plane waves:    5407
 k-point 57 :   0.0000-0.0000 0.5000  plane waves:    5422
 k-point 58 :   0.1667-0.0000 0.5000  plane waves:    5401
 k-point 59 :   0.3333-0.0000 0.5000  plane waves:    5390
 k-point 60 :   0.5000-0.0000 0.5000  plane waves:    5386
 k-point 61 :   0.0000 0.1667 0.5000  plane waves:    5395
 k-point 62 :   0.1667 0.1667 0.5000  plane waves:    5378
 k-point 63 :   0.3333 0.1667 0.5000  plane waves:    5396
 k-point 64 :   0.5000 0.1667 0.5000  plane waves:    5387
 k-point 65 :  -0.3333 0.1667 0.5000  plane waves:    5387
 k-point 66 :  -0.1667 0.1667 0.5000  plane waves:    5408
 k-point 67 :   0.0000 0.3333 0.5000  plane waves:    5395
 k-point 68 :   0.1667 0.3333 0.5000  plane waves:    5400
 k-point 69 :   0.3333 0.3333 0.5000  plane waves:    5397
 k-point 70 :   0.5000 0.3333 0.5000  plane waves:    5398
 k-point 71 :  -0.3333 0.3333 0.5000  plane waves:    5398
 k-point 72 :  -0.1667 0.3333 0.5000  plane waves:    5398
 k-point 73 :   0.0000 0.5000 0.5000  plane waves:    5396
 k-point 74 :   0.1667 0.5000 0.5000  plane waves:    5412
 k-point 75 :   0.3333 0.5000 0.5000  plane waves:    5408
 k-point 76 :   0.5000 0.5000 0.5000  plane waves:    5408

 maximum and minimum number of plane-waves per node :      1372     1318

 maximum number of plane-waves:      5429
 maximum index in each direction:
   IXMAX=   11   IYMAX=   11   IZMAX=   13
   IXMIN=  -11   IYMIN=  -11   IZMIN=  -13

 WARNING: aliasing errors must be expected set NGX to  46 to avoid them
 WARNING: aliasing errors must be expected set NGY to  46 to avoid them
 WARNING: aliasing errors must be expected set NGZ to  54 to avoid them
 aliasing errors are usually negligible using standard VASP settings
 and one can safely disregard these warnings

 parallel 3D FFT for wavefunctions:
    minimum data exchange during FFTs selected (reduces bandwidth)
 parallel 3D FFT for charge:
    minimum data exchange during FFTs selected (reduces bandwidth)

 initial charge density was supplied:
 number of electron      76.0000111 magnetization       0.0000000
 keeping initial charge density in first step

 Maximum index for augmentation-charges          411 (set IRDMAX)

 First call to EWALD:  gamma=   0.303
 Maximum number of real-space cells 3x 3x 2
 Maximum number of reciprocal cells 3x 3x 3

 FEWALD executed in parallel

----------------------------------------- Iteration    1(   1)  ---------------------------------------

 BZINTS: Fermi energy: 15.885946; 76.000000 electrons
         Band energy: 424.004168;  BLOECHL correction: -0.110805

 eigenvalue-minimisations  : 14592
 total energy-change (2. order) : 0.9485487E+03  (-0.3429576E+04)
 number of electron      76.0000111 magnetization       0.0000000
 augmentation part       76.0000111 magnetization       0.0000000

 Free energy of the ion-electron system (eV)
  alpha Z        PSCENC =       189.69156926
  Ewald energy   TEWEN  =      -871.68695160
  -1/2 Hartree   DENC   =     -4162.59109214
  -exchange  EXHF       =         0.00000000
  -V(xc)+E(xc)   XCENC  =       191.55170829
  PAW double counting   =      6500.34328232    -6433.33445934
  entropy T*S    EENTRO =         0.00000000
  eigenvalues    EBANDS =       424.00416774
  atomic energy  EATOM  =      5110.57042958
  free energy    TOTEN  =       948.54865412 eV

  energy without entropy =      948.54865412  energy(sigma->0) =      948.54865412

[...]

 BZINTS: Fermi energy:  2.553490; 76.000000 electrons
         Band energy:-413.821154;  BLOECHL correction: -0.108210

 eigenvalue-minimisations  : 16064
 total energy-change (2. order) :-0.8378253E+03  (-0.7882366E+03)
 number of electron      76.0000111 magnetization       0.0000000
 augmentation part       76.0000111 magnetization       0.0000000

[...]

----------------------------------------- Iteration    1(   8)  ---------------------------------------

[...]

 eigenvalue-minimisations  : 15776
 total energy-change (2. order) :-0.2691755E-04  (-0.2691258E-04)
 number of electron      76.0000111 magnetization       0.0000000
 augmentation part       76.0000111 magnetization       0.0000000

 Free energy of the ion-electron system (eV)
  alpha Z        PSCENC =       189.69156926
  Ewald energy   TEWEN  =      -871.68695160
  -1/2 Hartree   DENC   =     -4162.59109214
  -exchange  EXHF       =         0.00000000
  -V(xc)+E(xc)   XCENC  =       191.55170829
  PAW double counting   =      6500.34328232    -6433.33445934
  entropy T*S    EENTRO =         0.00000000
  eigenvalues    EBANDS =      -613.57422750
  atomic energy  EATOM  =      5110.57042958
  free energy    TOTEN  =       -89.02974112 eV

  energy without entropy =      -89.02974112  energy(sigma->0) =      -89.02974112

 average (electrostatic) potential at core
  the test charge radii are     1.0210  0.7215
  (the norm of the test charge is              1.0000)
       1 -51.9925       2 -51.9925       3 -51.9925       4 -51.9925       5 -76.1687
       6 -76.1687       7 -76.1687       8 -76.1687       9 -76.1687      10 -76.1687
      11 -76.1687      12 -76.1687

 E-fermi :  -2.3085     XC(G=0):  -7.7876     alpha+bet : -6.3575

 spin component 1

 k-point   1 :       0.0000    0.0000    0.0000
  band No.  band energies     occupation
      1     -20.6558      1.00000
      2     -19.0936      1.00000
      3     -19.0888      1.00000
      4     -19.0869      1.00000
      5     -18.9424      1.00000
      6     -18.9211      1.00000
      7     -18.9049      1.00000
      8     -18.5217      1.00000
      9      -8.6260      1.00000
     10      -8.4311      1.00000
     11      -7.9943      1.00000
     12      -7.5451      1.00000
     13      -7.1221      1.00000
     14      -6.9158      1.00000
     15      -6.4457      1.00000
     16      -6.4200      1.00000
     17      -6.1797      1.00000
     18      -5.8796      1.00000
     19      -5.8758      1.00000
     20      -5.8666      1.00000
     21      -5.7811      1.00000
     22      -5.0851      1.00000
     23      -4.9234      1.00000
     24      -4.7776      1.00000
     25      -4.6383      1.00000
     26      -4.3326      1.00000
     27      -4.1463      1.00000
     28      -4.1229      1.00000
     29      -4.0963      1.00000
     30      -3.4869      1.00000
     31      -3.4282      1.00000
     32      -3.3655      1.00000
     33      -3.3065      1.00000
     34      -3.2838      1.00000
     35      -3.2249      1.00000
     36      -2.9583      1.00000
     37      -2.6604      1.00000
     38      -2.6524      1.00000
     39      -0.1219      0.00000
     40       0.2689      0.00000
     41       0.4464      0.00000
     42       0.5679      0.00000
     43       0.9770      0.00000
     44       1.5080      0.00000
     45       1.7219      0.00000
     46       1.7465      0.00000
     47       1.9692      0.00000
     48       2.0677      0.00000

[...]

 spin component 2

[...]

 k-point  76 :       0.5000    0.5000    0.5000
  band No.  band energies     occupation
      1     -19.9686      1.00000
      2     -19.9686      1.00000
      3     -19.1657      1.00000
      4     -19.1657      1.00000
      5     -18.8516      1.00000
      6     -18.8516      1.00000
      7     -18.6756      1.00000
      8     -18.6756      1.00000
      9      -7.7237      1.00000
     10      -7.7237      1.00000
     11      -7.5993      1.00000
     12      -7.5993      1.00000
     13      -7.0495      1.00000
     14      -7.0495      1.00000
     15      -6.9016      1.00000
     16      -6.9016      1.00000
     17      -6.4601      1.00000
     18      -6.4601      1.00000
     19      -5.7992      1.00000
     20      -5.7992      1.00000
     21      -5.4886      1.00000
     22      -5.4886      1.00000
     23      -5.0537      1.00000
     24      -5.0537      1.00000
     25      -4.5906      1.00000
     26      -4.5906      1.00000
     27      -4.4264      1.00000
     28      -4.4264      1.00000
     29      -4.0118      1.00000
     30      -4.0118      1.00000
     31      -3.3899      1.00000
     32      -3.3899      1.00000
     33      -3.0836      1.00000
     34      -3.0836      1.00000
     35      -2.6829      1.00000
     36      -2.6829      1.00000
     37      -2.3974      1.00000
     38      -2.3974      1.00000
     39      -0.1859      0.00000
     40      -0.1858      0.00000
     41       0.6488      0.00000
     42       0.6488      0.00000
     43       1.5848      0.00000
     44       1.5849      0.00000
     45       1.6290      0.00000
     46       1.6298      0.00000
     47       1.7622      0.00000
     48       1.7630      0.00000

 soft charge-density along one line, spin component           1
         0         1         2         3         4         5         6         7         8         9
 total charge-density along one line

 soft charge-density along one line, spin component           2
         0         1         2         3         4         5         6         7         8         9
 total charge-density along one line

------------------------ aborting loop because EDIFF is reached ----------------------------------------

  FORCE on cell =-STRESS in cart. coord.  units (eV):
  Direction    XX          YY          ZZ          XY          YZ          ZX
  Alpha Z   189.69157   189.69157   189.69157
  Ewald    2342.38923  2345.44299 -5559.52523    -1.87066   -12.25766   -41.67984
  Hartree  3517.24381  3518.17496 -2872.47920    -0.56443   -10.59365   -34.78846
  E(xc)    -370.04291  -370.03638  -369.07740    -0.01266    -0.00893    -0.01051
  Local   -6889.07184 -6892.59019  7346.81075     2.03739    23.30595    77.07385
  n-local  -253.50501  -253.23120  -265.29914    -0.23413     0.11764     0.15974
  augment   172.23220   171.98340   178.29227     0.23150    -0.10576    -0.16297
  Kinetic  1290.96420  1290.44777  1351.42263     0.37837    -0.43590    -0.64140
  Fock        0.00000     0.00000     0.00000     0.00000     0.00000     0.00000
  Total      -0.09876    -0.11709    -0.16376    -0.03462     0.02168    -0.04959
  in kB      -0.78866    -0.93504    -1.30781    -0.27645     0.17317    -0.39603

 VOLUME and BASIS-vectors are now :
  energy-cutoff  :      520.00
  volume of cell :      200.62
      direct lattice vectors                 reciprocal lattice vectors
     5.742664680  0.120056527 -0.031734710     0.172101809  0.104095754  0.025850338
    -2.973541556  4.914181885  0.007984859    -0.004316442  0.200914956 -0.021009332
    -1.480738404  0.703015562  7.027251475     0.000782108  0.000241797  0.142443758

  length of vectors
     5.744007163  5.743796370  7.215890825     0.202788556  0.202056535  0.142446110

 FORCES acting on ions
    electron-ion (+dipol)            ewald-force                    non-local-force                 convergence-correction
   0.177E-06 -.817E-07 0.544E-06   -.174E-05 0.806E-06 -.544E-05   -.158E-20 -.689E-21 0.593E-21   0.107E-05 -.476E-06 0.748E-05
   0.177E-06 -.817E-07 0.544E-06   -.174E-05 0.806E-06 -.544E-05   0.275E-21 0.169E-21 -.146E-20   0.107E-05 -.476E-06 0.748E-05
   0.177E-06 -.817E-07 0.544E-06   -.174E-05 0.806E-06 -.544E-05   0.299E-21 -.102E-20 -.567E-21   0.107E-05 -.476E-06 0.748E-05
   0.177E-06 -.817E-07 0.544E-06   -.174E-05 0.806E-06 -.544E-05   -.177E-20 0.506E-21 -.865E-21   0.107E-05 -.476E-06 0.748E-05
   -.272E+01 -.932E+00 -.449E+03   0.283E+01 0.959E+00 0.474E+03   -.123E+00 -.235E-01 -.259E+02   0.204E-02 -.175E-02 0.147E-01
   0.272E+01 0.932E+00 0.449E+03   -.283E+01 -.959E+00 -.474E+03   0.123E+00 0.235E-01 0.259E+02   -.205E-02 0.175E-02 -.146E-01
   -.272E+01 -.931E+00 -.449E+03   0.283E+01 0.959E+00 0.474E+03   -.123E+00 -.235E-01 -.259E+02   0.215E-02 -.202E-02 0.147E-01
   0.272E+01 0.931E+00 0.449E+03   -.283E+01 -.959E+00 -.474E+03   0.123E+00 0.235E-01 0.259E+02   -.216E-02 0.203E-02 -.146E-01
   -.272E+01 -.932E+00 -.449E+03   0.283E+01 0.959E+00 0.474E+03   -.123E+00 -.235E-01 -.259E+02   0.204E-02 -.175E-02 0.147E-01
   0.272E+01 0.932E+00 0.449E+03   -.283E+01 -.959E+00 -.474E+03   0.123E+00 0.235E-01 0.259E+02   -.205E-02 0.175E-02 -.146E-01
   -.272E+01 -.931E+00 -.449E+03   0.283E+01 0.959E+00 0.474E+03   -.123E+00 -.235E-01 -.259E+02   0.215E-02 -.202E-02 0.147E-01
   0.272E+01 0.931E+00 0.449E+03   -.283E+01 -.959E+00 -.474E+03   0.123E+00 0.235E-01 0.259E+02   -.216E-02 0.203E-02 -.146E-01
   0.680E-04 -.327E-04 -.402E-03   -.111E-13 -.288E-13 0.568E-13   0.971E-16 0.312E-16 0.142E-13   -.318E-04 0.154E-04 0.245E-03

 POSITION                                       TOTAL-FORCE (eV/Angst)
      0.00000      0.00000      0.00000         0.000000      0.000000      0.000000
     -1.48677      2.45709      0.00399         0.000000      0.000000      0.000000
      2.87133      0.06003     -0.01587         0.000000      0.000000      0.000000
      1.38456      2.51712     -0.01187         0.000000      0.000000      0.000000
     -1.51677      4.11552      0.95821        -0.006614      0.001938      0.015488
      2.80515      1.62174      6.04529         0.006614     -0.001938     -0.015488
     -0.03000      1.65843      0.95422        -0.006614      0.001938      0.015488
      1.31838      4.07883      6.04929         0.006614     -0.001938     -0.015488
      1.35456      4.17555      0.94234        -0.006614      0.001938      0.015488
     -0.06618      1.56171      6.06116         0.006614     -0.001938     -0.015488
      2.84133      1.71845      0.93835        -0.006614      0.001938      0.015488
     -1.55295      4.01880      6.06515         0.006614     -0.001938     -0.015488
    total drift:                                0.000036     -0.000017     -0.000157

  FREE ENERGIE OF THE ION-ELECTRON SYSTEM (eV)
  free  energy   TOTEN  =       -89.02974112 eV

  energy  without entropy=      -89.02974112  energy(sigma->0) =      -89.02974112

 BZINTS: Fermi energy: -2.308464; 76.000000 electrons
         Band energy:-613.574227;  BLOECHL correction:  0.000000