 vasp.5.3.3 18Dez12 (build May 12 2016 12:04:25) complex

 executed on             LinuxIFC date 2019.05.18  11:40:28

 INCAR:
 POTCAR:    PAW_PBE Mn 06Sep2000
 POTCAR:    PAW_PBE O 08Apr2002
 POTCAR:    PAW_PBE Mn 06Sep2000

 POTCAR:    PAW_PBE O 08Apr2002

  PAW_PBE Mn 06Sep2000                  :
  PAW_PBE O 08Apr2002                   :

 POSCAR: (Mn O2)4  (Pnma) ~  (Pearson #541374)_1
  positions in direct lattice
  velocities in cartesian coordinates
 exchange correlation table for  LEXCH =       14
   RHO(1)=    0.500       N(1)  =     2000
   RHO(2)=  100.500       N(2)  =     4000

 ion  position               nearest neighbor table
   1  0.136  0.250  0.022-   8 1.86   8 1.86  10 1.89   5 1.91  12 1.92  12 1.92   3 2.91   3 2.91

   2  0.636  0.250  0.478-   7 1.86   7 1.86   9 1.89   6 1.91  11 1.92  11 1.92   4 2.91   4 2.91

[...]

   5  0.275  0.250  0.333-   4 1.86   4 1.86   1 1.91
   6  0.775  0.250  0.167-   3 1.86   3 1.86   2 1.91
   7  0.725  0.750  0.667-   2 1.86   2 1.86   3 1.91
   8  0.225  0.750  0.833-   1 1.86   1 1.86   4 1.91
   9  0.467  0.250  0.711-   2 1.89   4 1.92   4 1.92
  10  0.967  0.250  0.789-   1 1.89   3 1.92   3 1.92
  11  0.533  0.750  0.289-   4 1.89   2 1.92   2 1.92
  12  0.033  0.750  0.211-   3 1.89   1 1.92   1 1.92

  LATTYP: Found a simple orthorhombic cell.
 ALAT       =     2.8660000000
 B/A-ratio  =     1.5816468946
 C/A-ratio  =     3.2344731333

  Lattice vectors:

 A1 = (   0.0000000000,   2.8660000000,   0.0000000000)
 A2 = (   0.0000000000,   0.0000000000,  -4.5330000000)
 A3 = (  -9.2700000000,   0.0000000000,   0.0000000000)

Analysis of symmetry for initial positions (statically):
 Subroutine PRICEL returns:
 Original cell was already a primitive cell.

 Routine SETGRP: Setting up the symmetry group for a
 simple orthorhombic supercell.

 Subroutine GETGRP returns: Found  8 space group operations
 (whereof  2 operations were pure point group operations)
 out of a pool of  8 trial point group operations.

The static configuration has the point symmetry S_2 .
 The point group associated with its full space group is D_2h.

Analysis of symmetry for dynamics (positions and initial velocities):
 Subroutine PRICEL returns:
 Original cell was already a primitive cell.

 Routine SETGRP: Setting up the symmetry group for a
 simple orthorhombic supercell.

 Subroutine GETGRP returns: Found  8 space group operations
 (whereof  2 operations were pure point group operations)
 out of a pool of  8 trial point group operations.

The dynamic configuration has the point symmetry S_2 .
 The point group associated with its full space group is D_2h.

Analysis of magnetic symmetry:

 Subroutine MAGSYM returns: Found  8 space group operations
 (whereof  2 operations were pure point group operations)
 out of a pool of  8 trial space group operations
 (whereof  2 operations were pure point group operations)
 and found also     1 'primitive' translations

The magnetic configuration has the point symmetry S_2 .
 The point group associated with its full space group is D_2h.

 irot  :   1
 isymop:   1   0   0
           0   1   0
           0   0   1

 gtrans:     0.0000000     0.0000000     0.0000000

 ptrans:     0.0000000     0.0000000     0.0000000
 rotmap:
 (   1->   1)  (   2->   2)  (   3->   3)  (   4->   4)  (   5->   5)
 (   6->   6)  (   7->   7)  (   8->   8)  (   9->   9)  (  10->  10)
 (  11->  11)  (  12->  12)

[...]

 irot  :   8
 isymop:   1   0   0
           0  -1   0
           0   0   1

 gtrans:     0.0000000     0.5000000     0.0000000

 ptrans:     0.0000000     0.0000000     0.0000000
 rotmap:
 (   1->   1)  (   2->   2)  (   3->   3)  (   4->   4)  (   5->   5)
 (   6->   6)  (   7->   7)  (   8->   8)  (   9->   9)  (  10->  10)
 (  11->  11)  (  12->  12)

 KPOINTS: Automatic mesh

Automatic generation of k-mesh.
Space group operators:
 irot       det(A)        alpha          n_x          n_y          n_z        tau_x        tau_y        tau_z
    1     1.000000     0.000000     1.000000     0.000000     0.000000     0.000000     0.000000     0.000000
    2    -1.000000     0.000000     1.000000     0.000000     0.000000     0.000000     0.000000     0.000000
    3     1.000000   180.000000     1.000000     0.000000     0.000000    -0.500000     0.500000    -0.500000
    4    -1.000000   180.000000     1.000000     0.000000     0.000000    -0.500000     0.500000    -0.500000
    5     1.000000   180.000000     0.000000     0.000000     1.000000    -0.500000     0.000000    -0.500000
    6    -1.000000   180.000000     0.000000     0.000000     1.000000    -0.500000     0.000000    -0.500000
    7     1.000000   180.000000     0.000000     1.000000     0.000000     0.000000     0.500000     0.000000
    8    -1.000000   180.000000     0.000000     1.000000     0.000000     0.000000     0.500000     0.000000

 Subroutine IBZKPT returns following result:

 Found     40 irreducible k-points:

 Following reciprocal coordinates:
            Coordinates               Weight
  0.000000  0.000000  0.000000      1.000000
  0.333333  0.000000  0.000000      2.000000
  0.000000  0.111111  0.000000      2.000000
  0.333333  0.111111  0.000000      4.000000
  0.000000  0.222222  0.000000      2.000000
  0.333333  0.222222  0.000000      4.000000
  0.000000  0.333333  0.000000      2.000000
  0.333333  0.333333  0.000000      4.000000
  0.000000  0.444444  0.000000      2.000000
  0.333333  0.444444  0.000000      4.000000
  0.000000  0.000000  0.166667      2.000000
  0.333333  0.000000  0.166667      4.000000
  0.000000  0.111111  0.166667      4.000000
  0.333333  0.111111  0.166667      8.000000
  0.000000  0.222222  0.166667      4.000000
  0.333333  0.222222  0.166667      8.000000
  0.000000  0.333333  0.166667      4.000000
  0.333333  0.333333  0.166667      8.000000
  0.000000  0.444444  0.166667      4.000000
  0.333333  0.444444  0.166667      8.000000
  0.000000  0.000000  0.333333      2.000000
  0.333333  0.000000  0.333333      4.000000
  0.000000  0.111111  0.333333      4.000000
  0.333333  0.111111  0.333333      8.000000
  0.000000  0.222222  0.333333      4.000000
  0.333333  0.222222  0.333333      8.000000
  0.000000  0.333333  0.333333      4.000000
  0.333333  0.333333  0.333333      8.000000
  0.000000  0.444444  0.333333      4.000000
  0.333333  0.444444  0.333333      8.000000
  0.000000  0.000000  0.500000      1.000000
  0.333333  0.000000  0.500000      2.000000
  0.000000  0.111111  0.500000      2.000000
  0.333333  0.111111  0.500000      4.000000
  0.000000  0.222222  0.500000      2.000000
  0.333333  0.222222  0.500000      4.000000
  0.000000  0.333333  0.500000      2.000000
  0.333333  0.333333  0.500000      4.000000
  0.000000  0.444444  0.500000      2.000000
  0.333333  0.444444  0.500000      4.000000

 Following cartesian coordinates:
            Coordinates               Weight
  0.000000  0.000000  0.000000      1.000000
  0.035958  0.000000  0.000000      2.000000
  0.000000  0.038769  0.000000      2.000000
  0.035958  0.038769  0.000000      4.000000
  0.000000  0.077537  0.000000      2.000000
  0.035958  0.077537  0.000000      4.000000
  0.000000  0.116306  0.000000      2.000000
  0.035958  0.116306  0.000000      4.000000
  0.000000  0.155075  0.000000      2.000000
  0.035958  0.155075  0.000000      4.000000
  0.000000  0.000000  0.036767      2.000000
  0.035958  0.000000  0.036767      4.000000
  0.000000  0.038769  0.036767      4.000000
  0.035958  0.038769  0.036767      8.000000
  0.000000  0.077537  0.036767      4.000000
  0.035958  0.077537  0.036767      8.000000
  0.000000  0.116306  0.036767      4.000000
  0.035958  0.116306  0.036767      8.000000
  0.000000  0.155075  0.036767      4.000000
  0.035958  0.155075  0.036767      8.000000
  0.000000  0.000000  0.073535      2.000000
  0.035958  0.000000  0.073535      4.000000
  0.000000  0.038769  0.073535      4.000000
  0.035958  0.038769  0.073535      8.000000
  0.000000  0.077537  0.073535      4.000000
  0.035958  0.077537  0.073535      8.000000
  0.000000  0.116306  0.073535      4.000000
  0.035958  0.116306  0.073535      8.000000
  0.000000  0.155075  0.073535      4.000000
  0.035958  0.155075  0.073535      8.000000
  0.000000  0.000000  0.110302      1.000000
  0.035958  0.000000  0.110302      2.000000
  0.000000  0.038769  0.110302      2.000000
  0.035958  0.038769  0.110302      4.000000
  0.000000  0.077537  0.110302      2.000000
  0.035958  0.077537  0.110302      4.000000
  0.000000  0.116306  0.110302      2.000000
  0.035958  0.116306  0.110302      4.000000
  0.000000  0.155075  0.110302      2.000000
  0.035958  0.155075  0.110302      4.000000

 I would recommend the setting:
   dimension x,y,z NGX =    52 NGY =   16 NGZ =   25
 SYSTEM =  (Mn O2)4  (Pnma) ~  (Pearson
 POSCAR =  (Mn O2)4  (Pnma) ~  (Pearson #541374)_1

 Startparameter for this run:
   NWRITE =      1    write-flag & timer
   PREC   = normal    normal or accurate (medium, high low for compatibility)
   ISTART =      0    job   : 0-new  1-cont  2-samecut
   ICHARG =      2    charge: 1-file 2-atom 10-const
   ISPIN  =      2    spin polarized calculation?
   LNONCOLLINEAR =      F non collinear calculations
   LSORBIT =      F    spin-orbit coupling
   INIWAV =      1    electr: 0-lowe 1-rand  2-diag
   LASPH  =      F    aspherical Exc in radial PAW
   METAGGA=      F    non-selfconsistent MetaGGA calc.

 Electronic Relaxation 1
   ENCUT  =  520.0 eV  38.22 Ry    6.18 a.u.  17.24  5.33  8.43*2*pi/ulx,y,z
   ENINI  =  520.0     initial cutoff
   ENAUG  =  605.4 eV  augmentation charge cutoff
   NELM   =     60;   NELMIN=  2; NELMDL= -5     # of ELM steps
   EDIFF  = 0.1E-03   stopping-criterion for ELM
   LREAL  =      F    real-space projection
   NLSPLINE    = F    spline interpolate recip. space projectors
   LCOMPAT=      F    compatible to vasp.4.4
   GGA_COMPAT  = T    GGA compatible to vasp.4.4-vasp.4.6
   LMAXPAW     = -100 max onsite density
   LMAXMIX     =    4 max onsite mixed and CHGCAR
   VOSKOWN=      1    Vosko Wilk Nusair interpolation
   ROPT   =    0.00000   0.00000
 Ionic relaxation
   EDIFFG = 0.1E-02   stopping-criterion for IOM
   NSW    =    100    number of steps for IOM
   NBLOCK =      1;   KBLOCK =    100    inner block; outer block
   IBRION =      2    ionic relax: 0-MD 1-quasi-New 2-CG
   NFREE  =      1    steps in history (QN), initial steepest desc. (CG)
   ISIF   =      3    stress and relaxation
   IWAVPR =     11    prediction:  0-non 1-charg 2-wave 3-comb
   ISYM   =      2    0-nonsym 1-usesym 2-fastsym
   LCORR  =      T    Harris-Foulkes like correction to forces

   POTIM  = 0.5000    time-step for ionic-motion
   TEIN   =    0.0    initial temperature
   TEBEG  =    0.0;   TEEND  =   0.0 temperature during run
   SMASS  =  -3.00    Nose mass-parameter (am)
   estimated Nose-frequenzy (Omega)   =  0.10E-29 period in steps =****** mass=  -0.196E-26a.u.
   SCALEE = 1.0000    scale energy and forces
   NPACO  =    256;   APACO  = 16.0  distance and # of slots for P.C.
   PSTRESS=    0.0 pullay stress

  Mass of Ions in am
   POMASS =  54.94 16.00
  Ionic Valenz
   ZVAL   =   7.00  6.00
[...]
     37       2.2251      0.89203
     38       2.3316      0.50759
     39       4.2874     -0.00000
     40       4.3106     -0.00000
     41       4.3484     -0.00000
     42       5.1407     -0.00000
     43       5.2306     -0.00000
     44       5.2988     -0.00000
     45       5.6362     -0.00000
     46       6.1101     -0.00000
     47       6.2006     -0.00000
     48       6.3972     -0.00000

[...]

 soft charge-density along one line, spin component           1
         0         1         2         3         4         5         6         7         8         9
 total charge-density along one line

[...]

------------------------ aborting loop because EDIFF is reached ----------------------------------------

  FORCE on cell =-STRESS in cart. coord.  units (eV):
  Direction    XX          YY          ZZ          XY          YZ          ZX
  Alpha Z   316.00000   316.00000   316.00000
  Ewald   -1253.15067  -843.01898 -2027.76500     0.00000     0.00000     0.00000
  Hartree   526.96570   736.46400    85.84982    -0.00000    -0.00000    -0.00000
  E(xc)    -370.48367  -370.85178  -369.82287     0.00000    -0.00000    -0.00000
  Local    -447.09753 -1043.92925   742.77595     0.00000    -0.00000    -0.00000
  n-local  -258.22757  -252.19092  -263.28937    -0.00176    -0.03770     0.00296
  augment   174.81812   171.38186   177.85428    -0.00000    -0.00000     0.00000
  Kinetic  1312.10169  1288.98484  1340.97993    -0.00093    -0.65107     0.03674
  Fock        0.00000     0.00000     0.00000     0.00000     0.00000     0.00000
  Total       0.92606     2.83977     2.58274     0.00000     0.00000     0.00000
  in kB      12.31995    37.77913    34.35967     0.00000     0.00000     0.00000

 VOLUME and BASIS-vectors are now :
  energy-cutoff  :      520.00
  volume of cell :      120.43
      direct lattice vectors                 reciprocal lattice vectors
     9.270000000  0.000000000  0.000000000     0.107874865  0.000000000  0.000000000
     0.000000000  2.866000000  0.000000000     0.000000000  0.348918353  0.000000000
     0.000000000  0.000000000  4.533000000     0.000000000  0.000000000  0.220604456

[...]

 FORCES acting on ions
    electron-ion (+dipol)            ewald-force                    non-local-force                 convergence-correction
   -.431E+02 -.118E-10 -.616E+01   0.436E+02 -.320E-13 0.652E+01   -.865E+00 0.133E-18 0.539E+00   0.238E-01 0.324E-13 -.662E-02
   -.431E+02 0.124E-10 0.616E+01   0.436E+02 0.379E-13 -.652E+01   -.865E+00 -.322E-17 -.539E+00   0.238E-01 -.517E-13 0.662E-02
   0.431E+02 -.117E-10 0.616E+01   -.436E+02 0.432E-13 -.652E+01   0.865E+00 0.132E-17 -.539E+00   -.238E-01 0.472E-13 0.662E-02
   0.431E+02 0.134E-10 -.616E+01   -.436E+02 -.264E-13 0.652E+01   0.865E+00 0.271E-17 0.539E+00   -.238E-01 -.236E-13 -.662E-02
   0.377E+02 -.221E-10 0.390E+02   -.421E+02 0.869E-14 -.431E+02   0.415E+01 0.206E-17 0.359E+01   0.481E-02 0.367E-13 0.508E-02
   0.377E+02 -.218E-10 -.390E+02   -.421E+02 -.174E-13 0.431E+02   0.415E+01 0.541E-18 -.359E+01   0.481E-02 0.348E-13 -.508E-02
   -.377E+02 -.204E-10 -.390E+02   0.421E+02 -.162E-13 0.431E+02   -.415E+01 -.165E-17 -.359E+01   -.481E-02 0.434E-13 -.508E-02
   -.377E+02 -.216E-10 0.390E+02   0.421E+02 0.100E-13 -.431E+02   -.415E+01 -.330E-18 0.359E+01   -.481E-02 0.407E-14 0.508E-02
   -.206E+02 -.236E-10 -.207E+03   0.220E+02 0.170E-13 0.232E+03   -.163E+01 0.139E-18 -.256E+02   -.545E-02 0.379E-13 -.268E-01
   -.206E+02 -.266E-10 0.207E+03   0.220E+02 -.310E-13 -.232E+03   -.163E+01 0.586E-18 0.256E+02   -.545E-02 0.277E-13 0.268E-01
   0.206E+02 -.244E-10 0.207E+03   -.220E+02 -.328E-13 -.232E+03   0.163E+01 0.425E-18 0.256E+02   0.545E-02 0.695E-13 0.268E-01
   0.206E+02 -.190E-10 -.207E+03   -.220E+02 0.151E-13 0.232E+03   0.163E+01 -.388E-18 -.256E+02   0.545E-02 0.536E-13 -.268E-01
   -.250E-11 -.177E-09 -.751E-10   0.782E-13 -.240E-13 -.568E-13   0.000E+00 0.232E-17 -.355E-14   0.229E-12 0.312E-12 -.968E-13

 POSITION                                       TOTAL-FORCE (eV/Angst)
      1.26072      0.71650      0.09973        -0.427717     -0.000000      0.886977
      5.89572      0.71650      2.16677        -0.427717     -0.000000     -0.886977
      8.00928      2.14950      4.43327         0.427717     -0.000000     -0.886977
      3.37428      2.14950      2.36623         0.427717     -0.000000      0.886977
      2.54925      0.71650      1.50949        -0.199753      0.000000     -0.547660
      7.18425      0.71650      0.75701        -0.199753     -0.000000      0.547660
      6.72075      2.14950      3.02351         0.199753     -0.000000      0.547660
      2.08575      2.14950      3.77599         0.199753      0.000000     -0.547660
      4.32909      0.71650      3.22296        -0.233221      0.000000      0.210785
      8.96409      0.71650      3.57654        -0.233221     -0.000000     -0.210785
      4.94091      2.14950      1.31004         0.233221     -0.000000     -0.210785
      0.30591      2.14950      0.95646         0.233221      0.000000      0.210785
    total drift:                               -0.000000     -0.000000     -0.000000

  FREE ENERGIE OF THE ION-ELECTRON SYSTEM (eV)
  free  energy   TOTEN  =       -89.36729298 eV

  energy  without entropy=      -89.38002354  energy(sigma->0) =      -89.37153650

[...]

  free energy =  -0.891728650838E+02  energy without entropy=  -0.891860398360E+02

[...]

 d Force = 0.4013159E-01[-0.194E+00, 0.274E+00]  d Energy = 0.2189182E-01 0.182E-01
 d Force = 0.1042732E+02[ 0.854E+01, 0.123E+02]  d Ewald  =-0.2473498E+02 0.352E+02

 Steepest descent step on ions:
 trial-energy change:   -0.021892  1 .order   -0.032028   -0.334450    0.270395
  (g-gl).g = 0.334E+00      g.g   = 0.334E+00  gl.gl    = 0.000E+00
 g(Force)  = 0.272E+00   g(Stress)= 0.627E-01 ortho     = 0.000E+00
 gamma     =   0.00000
 trial     =   1.00000
 opt step  =   0.52789  (harmonic =   0.55295) maximal distance =0.02258862
 next E    =   -89.454079   (d E  =  -0.08679)

[...]

 d Force = 0.4244409E-01[-0.568E-02, 0.906E-01]  d Energy = 0.6535376E-01-0.229E-01
 d Force =-0.4364839E+01[-0.478E+01,-0.395E+01]  d Ewald  = 0.1212654E+02-0.165E+02

[...]

 d Force = 0.1990381E-01[ 0.105E-01, 0.293E-01]  d Energy = 0.2255065E-01-0.265E-02
 d Force = 0.1943586E+01[ 0.200E+01, 0.188E+01]  d Ewald  = 0.4276036E+01-0.233E+01

 Conjugate gradient step on ions:
 trial-energy change:   -0.022551  1 .order   -0.022051   -0.033330   -0.010772
  (g-gl).g = 0.382E-01      g.g   = 0.369E-01  gl.gl    = 0.334E+00
 g(Force)  = 0.310E-01   g(Stress)= 0.595E-02 ortho     =-0.123E-02
 gamma     =   0.11414
 trial     =   0.90558
 opt step  =   1.27004  (harmonic =   1.33799) maximal distance =0.01864572
 next E    =   -89.479289   (d E  =  -0.02475)

[...]

 d Force = 0.2704012E-02[ 0.117E-02, 0.423E-02]  d Energy = 0.2767202E-02-0.632E-04
 d Force = 0.8151779E+00[ 0.825E+00, 0.805E+00]  d Ewald  = 0.1765747E+01-0.951E+00

[...]

 d Force = 0.7304722E-02[ 0.466E-02, 0.995E-02]  d Energy = 0.7718367E-02-0.414E-03
 d Force = 0.7009336E+00[ 0.657E+00, 0.744E+00]  d Ewald  =-0.3745213E+01 0.445E+01

 Conjugate gradient step on ions:
 trial-energy change:   -0.007718  1 .order   -0.008681   -0.013060   -0.004303
  (g-gl).g = 0.111E-01      g.g   = 0.127E-01  gl.gl    = 0.369E-01
 g(Force)  = 0.921E-02   g(Stress)= 0.353E-02 ortho     = 0.202E-02
 gamma     =   0.29925
 trial     =   0.97847
 opt step  =   1.45918  (harmonic =   1.45918) maximal distance =0.01675489
 next E    =   -89.489595   (d E  =  -0.00974)

[...]

 d Force =-0.1365367E-02[-0.511E-02, 0.238E-02]  d Energy =-0.1744567E-02 0.379E-03
 d Force =-0.4734232E+00[-0.494E+00,-0.453E+00]  d Ewald  = 0.9495266E+01-0.997E+01

[...]

 d Force = 0.2286239E-02[ 0.131E-02, 0.326E-02]  d Energy = 0.2881516E-02-0.595E-03
 d Force = 0.3076856E+00[ 0.299E+00, 0.316E+00]  d Ewald  =-0.6009788E+01 0.632E+01

[...]

 eigenvalues of (default mixing * dielectric matrix)
  average eigenvalue GAMMA=   1.0666
  0.7091  1.2453  1.2453

[...]

 d Force = 0.5001141E-03[-0.252E-03, 0.125E-02]  d Energy = 0.1085059E-02-0.585E-03
 d Force = 0.1419966E+01[ 0.140E+01, 0.144E+01]  d Ewald  = 0.5357833E+01-0.394E+01

 Conjugate gradient step on ions:
 trial-energy change:   -0.001085  1 .order   -0.001196   -0.002213   -0.000179
  (g-gl).g = 0.214E-03      g.g   = 0.239E-02  gl.gl    = 0.792E-02
 g(Force)  = 0.139E-02   g(Stress)= 0.100E-02 ortho     =-0.126E-02
 gamma     =   0.02698
 trial     =   0.93856
 opt step  =   1.02120  (harmonic =   1.02120) maximal distance =0.00243889
 next E    =   -89.490082   (d E  =  -0.00120)

 FEWALD executed in parallel

[...]

 eigenvalue-minimisations  :  8016
 total energy-change (2. order) : 0.4280005E-04  (-0.2724148E-03)
 number of electron      76.0000034 magnetization       0.0000000
 augmentation part       17.3565009 magnetization       0.0000000

[...]

----------------------------------------- Iteration   11(   2)  ---------------------------------------

 eigenvalue-minimisations  :  3840
 total energy-change (2. order) :-0.2294084E-06  (-0.8940419E-05)
 number of electron      76.0000034 magnetization       0.0000000
 augmentation part       17.3565009 magnetization       0.0000000

  free energy =  -0.894899501703E+02  energy without entropy=  -0.895031610772E+02

 average (electrostatic) potential at core
  the test charge radii are     1.0210  0.7215
  (the norm of the test charge is              1.0000)
       1 -47.9343       2 -47.9343       3 -47.9343       4 -47.9343       5 -71.9875
       6 -71.9875       7 -71.9875       8 -71.9875       9 -72.2041      10 -72.2041
      11 -72.2041      12 -72.2041

 E-fermi :   2.2290     XC(G=0): -11.4409     alpha+bet :-10.5043

[...]

 spin component 2

[...]

 k-point  40 :       0.3333    0.4444    0.5000
  band No.  band energies     occupation
      1     -15.1900      1.00000
      2     -15.1799      1.00000
      3     -14.9579      1.00000
      4     -14.9520      1.00000
      5     -14.8035      1.00000
      6     -14.7910      1.00000
      7     -14.7407      1.00000
      8     -14.7088      1.00000
      9      -4.3519      1.00000
     10      -4.2502      1.00000
     11      -3.7488      1.00000
     12      -3.5791      1.00000
     13      -2.9675      1.00000
     14      -2.7799      1.00000
     15      -2.7669      1.00000
     16      -2.6384      1.00000
     17      -2.5208      1.00000
     18      -2.3341      1.00000
     19      -2.0298      1.00000
     20      -1.9602      1.00000
     21      -1.7179      1.00000
     22      -1.5502      1.00000
     23      -1.1639      1.00000
     24      -1.1039      1.00000
     25      -0.7787      1.00000
     26      -0.5953      1.00000
     27      -0.5437      1.00000
     28      -0.4309      1.00000
     29      -0.3449      1.00000
     30       0.0009      1.00000
     31       0.5474      1.00000
     32       0.7258      1.00000
     33       0.7742      1.00000
     34       0.9751      1.00000
     35       1.4125      1.00000
     36       1.4584      1.00000
     37       1.6029      1.00004
     38       1.7058      1.00068
     39       4.0146     -0.00000
     40       4.1331     -0.00000
     41       4.2957     -0.00000
     42       4.5264     -0.00000
     43       5.4180     -0.00000
     44       5.4215     -0.00000
     45       5.5832     -0.00000
     46       5.6077     -0.00000
     47       5.7811     -0.00000
     48       5.8140     -0.00000

[...]

 soft charge-density along one line, spin component           2
         0         1         2         3         4         5         6         7         8         9
 total charge-density along one line

------------------------ aborting loop because EDIFF is reached ----------------------------------------

  FORCE on cell =-STRESS in cart. coord.  units (eV):
  Direction    XX          YY          ZZ          XY          YZ          ZX
  Alpha Z   313.42212   313.42212   313.42212
  Ewald   -1268.53850  -858.28473 -1994.24810    -0.00000     0.00000     0.00000
  Hartree   521.28384   726.25792    97.74759    -0.00000    -0.00000    -0.00000
  E(xc)    -369.91740  -370.31464  -369.51744     0.00000     0.00000     0.00000
  Local    -425.47578 -1016.65599   701.86489    -0.00000     0.00000     0.00000
  n-local  -258.97597  -252.73911  -262.77105     0.00405    -0.04252     0.00781
  augment   175.14559   171.53757   177.65241    -0.00000    -0.00000     0.00000
  Kinetic  1313.17450  1286.76904  1335.67382    -0.02954    -0.63194     0.02959
  Fock        0.00000     0.00000     0.00000     0.00000     0.00000     0.00000
  Total       0.11841    -0.00783    -0.17575     0.00000     0.00000     0.00000
  in kB       1.56248    -0.10334    -2.31902     0.00000     0.00000     0.00000

 VOLUME and BASIS-vectors are now :
  energy-cutoff  :      520.00
  volume of cell :      121.42
      direct lattice vectors                 reciprocal lattice vectors
     9.227624058  0.000000000  0.000000000     0.108370258  0.000000000  0.000000000
     0.000000000  2.880523881  0.000000000     0.000000000  0.347159073  0.000000000
     0.000000000 -0.000000000  4.568121979     0.000000000 -0.000000000  0.218908340

  length of vectors
     9.227624058  2.880523881  4.568121979     0.108370258  0.347159073  0.218908340

 FORCES acting on ions
    electron-ion (+dipol)            ewald-force                    non-local-force                 convergence-correction
   -.463E+02 -.119E-10 -.957E+01   0.470E+02 0.963E-14 0.957E+01   -.786E+00 0.326E-17 -.368E-01   -.432E-03 0.271E-12 -.187E-02
   -.463E+02 0.111E-10 0.957E+01   0.470E+02 -.879E-14 -.957E+01   -.786E+00 -.377E-17 0.368E-01   -.432E-03 0.139E-11 0.187E-02
   0.463E+02 -.137E-10 0.957E+01   -.470E+02 -.162E-13 -.957E+01   0.786E+00 -.348E-17 0.368E-01   0.432E-03 -.196E-12 0.187E-02
   0.463E+02 0.120E-10 -.957E+01   -.470E+02 0.228E-14 0.957E+01   0.786E+00 0.372E-17 -.368E-01   0.432E-03 -.341E-12 -.187E-02
   0.286E+02 -.201E-10 0.403E+02   -.298E+02 -.286E-14 -.447E+02   0.121E+01 -.123E-17 0.441E+01   0.382E-02 -.320E-13 0.270E-02
   0.286E+02 -.302E-10 -.403E+02   -.298E+02 0.121E-13 0.447E+02   0.121E+01 -.202E-18 -.441E+01   0.382E-02 0.243E-11 -.270E-02
   -.286E+02 -.204E-10 -.403E+02   0.298E+02 0.133E-14 0.447E+02   -.121E+01 -.210E-17 -.441E+01   -.382E-02 0.370E-12 -.270E-02
   -.286E+02 -.232E-10 0.403E+02   0.298E+02 -.136E-13 -.447E+02   -.121E+01 -.222E-17 0.441E+01   -.382E-02 -.228E-12 0.270E-02
   -.248E+02 -.277E-10 -.205E+03   0.282E+02 -.438E-14 0.230E+03   -.334E+01 0.421E-17 -.257E+02   0.159E-02 0.824E-12 -.838E-02
   -.248E+02 -.208E-10 0.205E+03   0.282E+02 0.429E-14 -.230E+03   -.334E+01 -.130E-17 0.257E+02   0.159E-02 0.600E-12 0.838E-02
   0.248E+02 -.240E-10 0.205E+03   -.282E+02 0.628E-14 -.230E+03   0.334E+01 -.193E-17 0.257E+02   -.159E-02 -.892E-12 0.838E-02
   0.248E+02 -.188E-10 -.205E+03   -.282E+02 -.232E-14 0.230E+03   0.334E+01 0.490E-17 -.257E+02   -.159E-02 -.442E-12 -.838E-02
   -.667E-11 -.188E-09 -.665E-10   0.320E-13 -.123E-13 0.284E-13   -.888E-15 -.144E-18 0.000E+00   -.362E-12 0.375E-11 -.380E-11

 POSITION                                       TOTAL-FORCE (eV/Angst)
      1.24823      0.72013      0.14928        -0.035818      0.000000     -0.029246
      5.86205      0.72013      2.13478        -0.035818     -0.000000      0.029246
      7.97939      2.16039      4.41884         0.035818     -0.000000      0.029246
      3.36558      2.16039      2.43334         0.035818      0.000000     -0.029246
      2.56743      0.72013      1.50099         0.021455     -0.000000      0.010104
      7.18124      0.72013      0.78307         0.021455      0.000000     -0.010104
      6.66019      2.16039      3.06713        -0.021455      0.000000     -0.010104
      2.04638      2.16039      3.78505        -0.021455     -0.000000      0.010104
      4.30802      0.72013      3.26062         0.007995     -0.000000      0.031239
      8.92183      0.72013      3.59156         0.007995      0.000000     -0.031239
      4.91960      2.16039      1.30750        -0.007995      0.000000     -0.031239
      0.30579      2.16039      0.97656        -0.007995     -0.000000      0.031239
    total drift:                               -0.000000     -0.000000     -0.000000

  FREE ENERGIE OF THE ION-ELECTRON SYSTEM (eV)
  free  energy   TOTEN  =       -89.48995017 eV

  energy  without entropy=      -89.50316108  energy(sigma->0) =      -89.49435381

 d Force =-0.3625331E-04[-0.503E-04,-0.222E-04]  d Energy =-0.1312398E-04-0.231E-04
 d Force = 0.1233501E+00[ 0.123E+00, 0.123E+00]  d Ewald  = 0.4704211E+00-0.347E+00

 reached required accuracy - stopping structural energy minimisation