 vasp.5.3.3 18Dez12 (build May 12 2016 12:04:25) complex

 executed on             LinuxIFC date 2019.05.18  23:04:03

 INCAR:
 POTCAR:    PAW_PBE O 08Apr2002
 POTCAR:    PAW_PBE Mn 06Sep2000
 POTCAR:    PAW_PBE O 08Apr2002

 POTCAR:    PAW_PBE Mn 06Sep2000

  PAW_PBE O 08Apr2002                   :
  PAW_PBE Mn 06Sep2000                  :

 POSCAR: (Mn O2)16  (P1) ~ POSCAR_3 1 0 0  surfac
  positions in direct lattice
  velocities in cartesian coordinates
 exchange correlation table for  LEXCH =       14
   RHO(1)=    0.500       N(1)  =     2000
   RHO(2)=  100.500       N(2)  =     4000

 ion  position               nearest neighbor table
   1  0.342  0.500  0.157-  44 1.79
   2  0.156  0.000  0.432-  40 1.90  40 1.90  34 1.91
   3  0.156  0.000  0.762-  41 1.89  41 1.89  35 1.90
   4  0.658  0.500  0.267-  36 1.87  38 1.94  38 1.94
   5  0.656  0.500  0.597-  39 1.89  39 1.89  37 1.90
   6  0.844  0.000  0.236-  36 1.89  36 1.89  38 1.92
   7  0.844  0.000  0.568-  37 1.89  37 1.89  39 1.90
   8  0.345  0.500  0.401-  34 1.89  34 1.89  40 1.91
   9  0.344  0.500  0.733-  35 1.89  35 1.89  41 1.90
  10  0.798  0.000  0.448-  48 1.89  48 1.89  42 1.91
  11  0.796  0.000  0.779-  49 1.89  49 1.89  43 1.90
  12  0.295  0.500  0.283-  46 1.88  46 1.88  44 1.95
  13  0.296  0.500  0.614-  47 1.89  47 1.89  45 1.90
  14  0.204  0.000  0.221-  44 1.90  44 1.90  46 1.90
  15  0.204  0.000  0.551-  45 1.89  45 1.89  47 1.90
  16  0.705  0.500  0.386-  42 1.89  42 1.89  48 1.90
  17  0.704  0.500  0.716-  43 1.89  43 1.89  49 1.90
  18  0.163  0.000  0.348-  46 1.88  40 1.88  40 1.88
  19  0.161  0.000  0.678-  47 1.85  41 1.88  41 1.88
  20  0.659  0.500  0.184-  38 1.82  38 1.82
  21  0.661  0.500  0.513-  48 1.86  39 1.88  39 1.88
  22  0.839  0.000  0.321-  42 1.86  36 1.88  36 1.88
  23  0.839  0.000  0.652-  43 1.85  37 1.88  37 1.88
  24  0.335  0.500  0.486-  45 1.88  34 1.89  34 1.89
  25  0.339  0.500  0.817-  35 1.88  35 1.88
  26  0.542  0.000  0.445-  34 1.88  48 1.88  48 1.88
  27  0.541  0.000  0.775-  35 1.88  49 1.88  49 1.88
  28  0.041  0.500  0.281-  36 1.87  46 1.89  46 1.89
  29  0.041  0.500  0.610-  37 1.88  47 1.88  47 1.88
  30  0.460  0.000  0.225-  38 1.86  44 1.89  44 1.89
  31  0.459  0.000  0.555-  39 1.88  45 1.88  45 1.88
  32  0.960  0.500  0.388-  40 1.86  42 1.88  42 1.88
  33  0.959  0.500  0.720-  41 1.88  43 1.88  43 1.88
  34  0.349  0.000  0.444-  26 1.88  24 1.89  24 1.89   8 1.89   8 1.89   2 1.91  40 2.87  40 2.87

  35  0.348  0.000  0.775-  27 1.88  25 1.88  25 1.88   9 1.89   9 1.89   3 1.90  41 2.87  41 2.87

[...]

  49  0.668  0.500  0.780-  27 1.88  27 1.88  11 1.89  11 1.89  17 1.90  43 2.87  43 2.87

  LATTYP: Found a simple orthorhombic cell.
 ALAT       =     2.8413000000
 B/A-ratio  =     3.4120261852
 C/A-ratio  =    10.3466019076

  Lattice vectors:

 A1 = (   0.0000000000,  -2.8413000000,   0.0000000000)
 A2 = (  -9.6945900000,   0.0000000000,   0.0000000000)
 A3 = (   0.0000000000,   0.0000000000, -29.3978000000)

Analysis of symmetry for initial positions (statically):
 Subroutine PRICEL returns:
 Original cell was already a primitive cell.

 Routine SETGRP: Setting up the symmetry group for a
 simple orthorhombic supercell.

 Subroutine GETGRP returns: Found  2 space group operations
 (whereof  2 operations were pure point group operations)
 out of a pool of  8 trial point group operations.

The static configuration has the point symmetry C_1h.

Analysis of symmetry for dynamics (positions and initial velocities):
 Subroutine PRICEL returns:
 Original cell was already a primitive cell.

[...]

The dynamic configuration has the point symmetry C_1h.

Analysis of constrained symmetry for selective dynamics:
 Subroutine PRICEL returns:
 Original cell was already a primitive cell.

 Routine SETGRP: Setting up the symmetry group for a
 simple orthorhombic supercell.

 Subroutine GETGRP returns: Found  2 space group operations
 (whereof  2 operations were pure point group operations)
 out of a pool of  8 trial point group operations.

The constrained configuration has the point symmetry C_1h.

Analysis of magnetic symmetry:

 Subroutine MAGSYM returns: Found  2 space group operations
 (whereof  2 operations were pure point group operations)
 out of a pool of  2 trial space group operations
 (whereof  2 operations were pure point group operations)
 and found also     1 'primitive' translations

The magnetic configuration has the point symmetry C_1h.

 irot  :   1
 isymop:   1   0   0
           0   1   0
           0   0   1

 gtrans:     0.0000000     0.0000000     0.0000000

 ptrans:     0.0000000     0.0000000     0.0000000
 rotmap:
 (   1->   1)  (   2->   2)  (   3->   3)  (   4->   4)  (   5->   5)
 (   6->   6)  (   7->   7)  (   8->   8)  (   9->   9)  (  10->  10)
 (  11->  11)  (  12->  12)  (  13->  13)  (  14->  14)  (  15->  15)
 (  16->  16)  (  17->  17)  (  18->  18)  (  19->  19)  (  20->  20)
 (  21->  21)  (  22->  22)  (  23->  23)  (  24->  24)  (  25->  25)
 (  26->  26)  (  27->  27)  (  28->  28)  (  29->  29)  (  30->  30)
 (  31->  31)  (  32->  32)  (  33->  33)  (  34->  34)  (  35->  35)
 (  36->  36)  (  37->  37)  (  38->  38)  (  39->  39)  (  40->  40)
 (  41->  41)  (  42->  42)  (  43->  43)  (  44->  44)  (  45->  45)
 (  46->  46)  (  47->  47)  (  48->  48)  (  49->  49)

 irot  :   2
 isymop:   1   0   0
           0  -1   0
           0   0   1

 gtrans:     0.0000000     0.0000000     0.0000000

 ptrans:     0.0000000     0.0000000     0.0000000
 rotmap:
 (   1->   1)  (   2->   2)  (   3->   3)  (   4->   4)  (   5->   5)
 (   6->   6)  (   7->   7)  (   8->   8)  (   9->   9)  (  10->  10)
 (  11->  11)  (  12->  12)  (  13->  13)  (  14->  14)  (  15->  15)
 (  16->  16)  (  17->  17)  (  18->  18)  (  19->  19)  (  20->  20)
 (  21->  21)  (  22->  22)  (  23->  23)  (  24->  24)  (  25->  25)
 (  26->  26)  (  27->  27)  (  28->  28)  (  29->  29)  (  30->  30)
 (  31->  31)  (  32->  32)  (  33->  33)  (  34->  34)  (  35->  35)
 (  36->  36)  (  37->  37)  (  38->  38)  (  39->  39)  (  40->  40)
 (  41->  41)  (  42->  42)  (  43->  43)  (  44->  44)  (  45->  45)
 (  46->  46)  (  47->  47)  (  48->  48)  (  49->  49)

 KPOINTS: Automatic mesh

Automatic generation of k-mesh.
Space group operators:
 irot       det(A)        alpha          n_x          n_y          n_z        tau_x        tau_y        tau_z
    1     1.000000     0.000000     1.000000     0.000000     0.000000     0.000000     0.000000     0.000000
    2    -1.000000   180.000000     0.000000     1.000000     0.000000     0.000000     0.000000     0.000000

 Subroutine IBZKPT returns following result:

 Found     10 irreducible k-points:

 Following reciprocal coordinates:
            Coordinates               Weight
  0.000000  0.000000  0.000000      1.000000
  0.333333  0.000000  0.000000      2.000000
  0.000000  0.111111  0.000000      2.000000
  0.333333  0.111111  0.000000      4.000000
  0.000000  0.222222  0.000000      2.000000
  0.333333  0.222222  0.000000      4.000000
  0.000000  0.333333  0.000000      2.000000
  0.333333  0.333333  0.000000      4.000000
  0.000000  0.444444  0.000000      2.000000
  0.333333  0.444444  0.000000      4.000000

 Following cartesian coordinates:
            Coordinates               Weight
  0.000000  0.000000  0.000000      1.000000
  0.034383  0.000000  0.000000      2.000000
  0.000000  0.039106  0.000000      2.000000
  0.034383  0.039106  0.000000      4.000000
  0.000000  0.078211  0.000000      2.000000
  0.034383  0.078211  0.000000      4.000000
  0.000000  0.117317  0.000000      2.000000
  0.034383  0.117317  0.000000      4.000000
  0.000000  0.156423  0.000000      2.000000
  0.034383  0.156423  0.000000      4.000000

 TETIRR: Found     64 inequivalent tetrahedra from      162

 I would recommend the setting:
   dimension x,y,z NGX =    54 NGY =   16 NGZ =  164
 SYSTEM =  (Mn O2)16  (P1) ~ POSCAR_3 1 0 0  surfa
 POSCAR =  (Mn O2)16  (P1) ~ POSCAR_3 1 0 0  surfac

 Startparameter for this run:
   NWRITE =      1    write-flag & timer
   PREC   = normal    normal or accurate (medium, high low for compatibility)
   ISTART =      0    job   : 0-new  1-cont  2-samecut
   ICHARG =      2    charge: 1-file 2-atom 10-const
   ISPIN  =      2    spin polarized calculation?
   LNONCOLLINEAR =      F non collinear calculations
   LSORBIT =      F    spin-orbit coupling
   INIWAV =      1    electr: 0-lowe 1-rand  2-diag
   LASPH  =      F    aspherical Exc in radial PAW
   METAGGA=      F    non-selfconsistent MetaGGA calc.

 Electronic Relaxation 1
   ENCUT  =  520.0 eV  38.22 Ry    6.18 a.u.  18.03  5.28 54.66*2*pi/ulx,y,z
   ENINI  =  520.0     initial cutoff
   ENAUG  =  605.4 eV  augmentation charge cutoff
   NELM   =     60;   NELMIN=  2; NELMDL= -5     # of ELM steps
   EDIFF  = 0.1E-03   stopping-criterion for ELM
   LREAL  =      F    real-space projection
   NLSPLINE    = F    spline interpolate recip. space projectors
   LCOMPAT=      F    compatible to vasp.4.4
   GGA_COMPAT  = T    GGA compatible to vasp.4.4-vasp.4.6
   LMAXPAW     = -100 max onsite density
   LMAXMIX     =    2 max onsite mixed and CHGCAR
   VOSKOWN=      1    Vosko Wilk Nusair interpolation
   ROPT   =    0.00000   0.00000
 Ionic relaxation
   EDIFFG = 0.1E-02   stopping-criterion for IOM
   NSW    =    100    number of steps for IOM
   NBLOCK =      1;   KBLOCK =    100    inner block; outer block
   IBRION =      2    ionic relax: 0-MD 1-quasi-New 2-CG
   NFREE  =      1    steps in history (QN), initial steepest desc. (CG)
   ISIF   =      2    stress and relaxation
   IWAVPR =     11    prediction:  0-non 1-charg 2-wave 3-comb
   ISYM   =      2    0-nonsym 1-usesym 2-fastsym
   LCORR  =      T    Harris-Foulkes like correction to forces

   POTIM  = 0.5000    time-step for ionic-motion
   TEIN   =    0.0    initial temperature
   TEBEG  =    0.0;   TEEND  =   0.0 temperature during run
   SMASS  =  -3.00    Nose mass-parameter (am)
   estimated Nose-frequenzy (Omega)   =  0.10E-29 period in steps =****** mass=  -0.215E-26a.u.
   SCALEE = 1.0000    scale energy and forces
   NPACO  =    256;   APACO  = 16.0  distance and # of slots for P.C.
   PSTRESS=    0.0 pullay stress

  Mass of Ions in am
   POMASS =  16.00 54.94
  Ionic Valenz
   ZVAL   =   6.00  7.00
  Atomic Wigner-Seitz radii
  virtual crystal weights
   VCA    =   1.00  1.00
   NELECT =     310.0000    total number of electrons
   NUPDOWN=      -1.0000    fix difference up-down

 DOS related values:
   EMIN   =  10.00;   EMAX   =-10.00  energy-range for DOS
   EFERMI =   0.00
   ISMEAR =    -5;   SIGMA  =   0.20  broadening in eV -4-tet -1-fermi 0-gaus

 Electronic relaxation 2 (details)
   IALGO  =     38    algorithm
   LDIAG  =      T    sub-space diagonalisation (order eigenvalues)
   LSUBROT=      T    optimize rotation matrix (better conditioning)
   TURBO    =      0    0=normal 1=particle mesh
   IRESTART =      0    0=no restart 2=restart with 2 vectors
   NREBOOT  =      0    no. of reboots
   NMIN     =      0    reboot dimension
   EREF     =   0.00    reference energy to select bands
[...]
      11 -76.6772      12 -75.8892      13 -76.2287      14 -76.5206      15 -76.2509
      16 -76.2769      17 -76.8742      18 -76.2389      19 -76.3049      20 -75.8872
      21 -76.1073      22 -76.1507      23 -76.3637      24 -76.2685      25 -75.3307
      26 -76.0720      27 -76.5837      28 -76.0184      29 -76.1053      30 -76.4222
      31 -76.2195      32 -76.2479      33 -76.4463      34 -51.5417      35 -51.3499
      36 -51.3407      37 -51.6535      38 -51.4852      39 -51.5652      40 -51.4944
      41 -51.5397      42 -51.4954      43 -51.8077      44 -52.3093      45 -51.5021
      46 -51.4480      47 -51.4794      48 -51.5321      49 -51.7671

 E-fermi :  -1.0010     XC(G=0):  -7.4147     alpha+bet : -6.3928

[...]

 spin component 2

[...]

 k-point  10 :       0.3333    0.4444    0.0000
  band No.  band energies     occupation
      1     -19.6909      1.00000
      2     -19.4535      1.00000
      3     -19.4209      1.00000
      4     -19.3527      1.00000
      5     -19.3330      1.00000
      6     -19.2907      1.00000
      7     -19.2681      1.00000
      8     -19.1944      1.00000
      9     -19.1809      1.00000
     10     -19.1355      1.00000
     11     -19.0710      1.00000
     12     -19.0532      1.00000
     13     -19.0406      1.00000
     14     -19.0255      1.00000
     15     -18.9932      1.00000
     16     -18.9900      1.00000
     17     -18.9568      1.00000
     18     -18.9398      1.00000
     19     -18.9161      1.00000
     20     -18.9089      1.00000
     21     -18.8666      1.00000
     22     -18.8437      1.00000
     23     -18.8098      1.00000
     24     -18.7882      1.00000
     25     -18.7484      1.00000
     26     -18.7297      1.00000
     27     -18.7151      1.00000
     28     -18.7048      1.00000
     29     -18.6682      1.00000
     30     -18.4714      1.00000
     31     -18.4335      1.00000
     32     -18.2819      1.00000
     33     -17.6317      1.00000
     34      -7.9201      1.00000
     35      -7.7903      1.00000
     36      -7.7793      1.00000
     37      -7.6273      1.00000
     38      -7.5767      1.00000
     39      -7.5653      1.00000
     40      -7.5220      1.00000
     41      -7.4667      1.00000
     42      -7.4458      1.00000
     43      -7.4137      1.00000
     44      -7.3371      1.00000
     45      -7.2647      1.00000
     46      -7.1641      1.00000
     47      -7.1226      1.00000
     48      -7.0700      1.00000
     49      -6.9907      1.00000
     50      -6.9615      1.00000
     51      -6.8844      1.00000
     52      -6.8607      1.00000
     53      -6.8141      1.00000
     54      -6.7800      1.00000
     55      -6.7573      1.00000
     56      -6.7111      1.00000
     57      -6.6560      1.00000
     58      -6.6190      1.00000
     59      -6.6116      1.00000
     60      -6.5665      1.00000
[...]
    178       0.7298      0.00000
    179       0.7723      0.00000
    180       0.8054      0.00000
    181       0.8876      0.00000
    182       0.9433      0.00000
    183       0.9527      0.00000
    184       0.9932      0.00000
    185       1.0603      0.00000
    186       1.1583      0.00000
    187       1.1790      0.00000
    188       1.2175      0.00000
    189       1.3264      0.00000
    190       1.4452      0.00000
    191       1.5319      0.00000
    192       1.7468      0.00000

[...]

 soft charge-density along one line, spin component           2
         0         1         2         3         4         5         6         7         8         9
 total charge-density along one line

------------------------ aborting loop because EDIFF is reached ----------------------------------------

  FORCE on cell =-STRESS in cart. coord.  units (eV):
  Direction    XX          YY          ZZ          XY          YZ          ZX
  Alpha Z   775.65411   775.65411   775.65411
  Ewald   78953.16355 85654.27915-92242.13251     0.00000     0.00000    91.81964
  Hartree 85614.04814 90405.98723-83072.90966    -0.00000    -0.00000    61.14390
  E(xc)   -1502.45451 -1504.46493 -1503.59483    -0.00000     0.00000    -0.14610
  Local  ************************170978.46471    -0.00000    -0.00000  -150.52250
  n-local -1073.53938 -1049.64231 -1080.63073     0.10712     0.02755     0.76252
  augment   701.53735   685.73384   704.36837     0.00000    -0.00000    -0.34296
  Kinetic  5421.05989  5290.49040  5439.24733    -0.30844    -0.19076    -3.58907
  Fock        0.00000     0.00000     0.00000     0.00000     0.00000     0.00000
  Total      -1.68557    -7.55499    -1.53321     0.00000     0.00000    -0.87456
  in kB      -3.33499   -14.94801    -3.03355     0.00000     0.00000    -1.73038

 VOLUME and BASIS-vectors are now :
  energy-cutoff  :      520.00
  volume of cell :      809.77
      direct lattice vectors                 reciprocal lattice vectors
     9.694590000  0.000000000  0.000000000     0.103150314  0.000000000  0.000000000
     0.000000000  2.841300000  0.000000000     0.000000000  0.351951571  0.000000000
     0.000000000  0.000000000 29.397800000     0.000000000  0.000000000  0.034016151

  length of vectors
     9.694590000  2.841300000 29.397800000     0.103150314  0.351951571  0.034016151

 FORCES acting on ions
    electron-ion (+dipol)            ewald-force                    non-local-force                 convergence-correction
   0.687E+02 -.131E-11 0.196E+04   -.685E+02 0.784E-14 -.199E+04   -.598E+00 0.962E-19 0.299E+02   0.373E+00 -.960E-13 0.167E+01
   0.208E+03 0.140E-12 0.840E+02   -.224E+03 -.575E-14 -.632E+02   0.164E+02 0.258E-19 -.194E+02   0.601E-02 -.264E-13 -.139E+01
   0.180E+03 0.640E-12 -.182E+04   -.194E+03 0.133E-13 0.184E+04   0.160E+02 0.304E-18 -.197E+02   -.134E+01 0.562E-13 -.667E+00
   0.220E+03 -.126E-11 0.108E+04   -.237E+03 0.101E-13 -.106E+04   0.171E+02 -.535E-19 -.177E+02   -.223E+00 0.534E-12 -.143E+01
   0.209E+03 0.174E-11 -.885E+03   -.225E+03 0.701E-14 0.906E+03   0.166E+02 -.171E-18 -.191E+02   0.303E-01 0.495E-13 -.145E+01
   -.183E+03 0.680E-12 0.179E+04   0.201E+03 -.390E-14 -.181E+04   -.168E+02 0.171E-18 0.186E+02   -.825E+00 -.290E-12 -.380E+00
   -.205E+03 0.860E-12 -.159E+03   0.221E+03 0.127E-13 0.141E+03   -.166E+02 -.226E-18 0.196E+02   -.138E-01 -.222E-13 -.143E+01
   -.212E+03 0.340E-12 0.811E+03   0.228E+03 -.864E-14 -.829E+03   -.162E+02 0.159E-18 0.198E+02   0.349E-01 -.273E-12 -.140E+01
   -.235E+03 0.400E-12 -.114E+04   0.251E+03 0.161E-13 0.112E+04   -.163E+02 0.559E-19 0.176E+02   -.928E-01 -.156E-12 -.197E+01
   -.273E+03 0.840E-12 0.535E+02   0.293E+03 0.330E-14 -.360E+02   -.200E+02 -.107E-18 -.161E+02   -.265E-01 -.499E-12 -.139E+01
   -.180E+03 0.108E-11 -.191E+04   0.200E+03 0.157E-14 0.192E+04   -.203E+02 -.271E-18 -.130E+02   0.439E+00 0.920E-13 0.134E+00
   -.292E+03 -.204E-11 0.105E+04   0.314E+03 -.331E-14 -.104E+04   -.219E+02 0.141E-18 -.102E+02   0.185E+00 0.225E-12 -.121E+01
   -.279E+03 0.126E-11 -.918E+03   0.298E+03 -.452E-14 0.936E+03   -.198E+02 0.383E-18 -.161E+02   -.248E-01 0.109E-12 -.149E+01
   0.258E+03 0.440E-12 0.178E+04   -.278E+03 0.772E-15 -.179E+04   0.200E+02 0.700E-20 0.134E+02   0.732E+00 0.294E-13 -.249E-01
   0.273E+03 0.480E-12 -.123E+03   -.293E+03 0.178E-13 0.108E+03   0.200E+02 0.722E-19 0.159E+02   -.106E-01 -.359E-13 -.144E+01
   0.279E+03 -.420E-12 0.844E+03   -.300E+03 0.117E-13 -.859E+03   0.202E+02 0.415E-18 0.163E+02   0.600E-02 -.853E-13 -.134E+01
   0.292E+03 -.760E-12 -.112E+04   -.312E+03 -.382E-14 0.111E+04   0.198E+02 0.169E-18 0.167E+02   0.290E+00 -.640E-13 -.108E+01
   -.134E+03 -.300E-12 0.892E+03   0.136E+03 0.116E-13 -.895E+03   -.161E+01 0.247E-20 0.420E+01   0.564E-01 -.993E-14 -.130E+01
   -.131E+03 -.800E-13 -.105E+04   0.133E+03 0.159E-16 0.104E+04   -.140E+01 -.206E-20 0.362E+01   -.259E+00 0.998E-13 -.143E+01
   -.118E+03 0.220E-12 0.197E+04   0.120E+03 0.141E-13 -.199E+04   -.174E+01 -.202E-18 0.254E+02   -.296E+00 -.135E-12 0.120E+01
   -.125E+03 -.104E-11 -.721E+02   0.126E+03 0.108E-13 0.692E+02   -.157E+01 0.424E-19 0.438E+01   0.131E-01 -.535E-13 -.144E+01
   0.135E+03 0.197E-13 0.986E+03   -.137E+03 0.415E-14 -.982E+03   0.131E+01 0.569E-19 -.327E+01   -.139E+00 -.384E-12 -.118E+01
   0.133E+03 -.220E-12 -.968E+03   -.134E+03 -.238E-15 0.972E+03   0.131E+01 0.762E-19 -.270E+01   0.508E-01 0.354E-12 -.131E+01
   0.123E+03 0.988E-12 0.687E+01   -.124E+03 0.223E-13 -.144E+01   0.992E+00 -.629E-20 -.397E+01   -.627E-02 0.389E-12 -.143E+01
   0.541E+02 -.770E-12 -.196E+04   -.563E+02 -.230E-14 0.198E+04   0.253E+01 -.453E-19 -.248E+02   -.152E+00 -.304E-12 0.150E+01
   0.428E+02 -.400E-12 0.418E+03   -.473E+02 0.113E-13 -.420E+03   0.440E+01 -.951E-18 0.371E+01   0.356E-01 -.363E-12 -.137E+01
   0.169E+01 0.200E-12 -.159E+04   -.820E+01 0.682E-15 0.158E+04   0.585E+01 -.455E-18 0.490E+01   0.121E+01 -.582E-13 -.329E+00
   0.378E+02 -.460E-12 0.138E+04   -.416E+02 0.177E-13 -.138E+04   0.372E+01 0.285E-18 0.118E+01   0.102E+00 0.245E-12 -.760E+00
   0.424E+02 0.120E-12 -.549E+03   -.462E+02 0.199E-13 0.546E+03   0.376E+01 0.373E-18 0.445E+01   -.427E-01 -.281E-13 -.140E+01
   -.761E+02 -.380E-12 0.141E+04   0.808E+02 0.471E-14 -.140E+04   -.504E+01 -.566E-19 -.114E+02   0.260E+00 -.636E-14 -.538E+00
   -.424E+02 -.160E-12 -.491E+03   0.465E+02 0.161E-13 0.496E+03   -.398E+01 -.597E-19 -.334E+01   0.301E-01 0.646E-14 -.145E+01
   -.320E+02 -.480E-12 0.491E+03   0.355E+02 0.224E-13 -.488E+03   -.350E+01 -.361E-19 -.135E+01   -.373E-01 0.124E-12 -.132E+01
   -.245E+02 0.212E-11 -.145E+04   0.294E+02 -.257E-14 0.146E+04   -.504E+01 0.709E-18 -.317E+01   -.130E+00 -.682E-12 -.800E+00
   0.366E+01 0.198E-12 0.364E+03   -.297E+01 0.868E-15 -.362E+03   -.742E+00 0.986E-20 -.351E+00   0.261E-01 0.158E-12 -.161E+01
   -.497E+02 -.233E-12 -.192E+04   0.497E+02 -.221E-14 0.192E+04   -.162E+00 0.106E-18 -.323E+00   -.421E-01 0.209E-12 -.912E+00
   0.209E+02 0.262E-11 0.151E+04   -.202E+02 0.186E-13 -.151E+04   -.323E+00 -.193E-19 -.517E+00   -.396E+00 0.310E-12 -.111E+01
   0.150E+02 -.116E-11 -.770E+03   -.142E+02 0.626E-14 0.772E+03   -.632E+00 0.129E-18 -.364E+00   0.914E-02 -.265E-12 -.163E+01
   -.102E+02 0.158E-12 0.188E+04   0.103E+02 -.157E-13 -.188E+04   0.275E+00 -.179E-19 0.159E+00   -.342E+00 -.452E-12 -.467E+00
   -.999E+01 -.663E-13 -.446E+03   0.897E+01 -.268E-14 0.447E+03   0.354E+00 -.343E-18 0.670E+00   0.226E-01 -.157E-12 -.169E+01
   -.156E+02 0.183E-12 0.674E+03   0.149E+02 0.115E-13 -.673E+03   0.648E+00 0.935E-19 0.579E+00   0.379E-02 -.531E-13 -.156E+01
   -.232E+02 0.105E-12 -.157E+04   0.238E+02 0.608E-14 0.157E+04   0.461E+00 0.499E-19 0.538E+00   -.711E+00 -.590E-13 -.145E+01
   0.441E+02 -.115E-12 0.740E+03   -.436E+02 -.292E-13 -.739E+03   -.490E+00 0.251E-18 0.766E+00   -.548E-01 -.443E-12 -.155E+01
   0.647E+02 0.231E-12 -.153E+04   -.637E+02 0.291E-14 0.153E+04   -.643E+00 -.388E-18 0.991E+00   0.202E+00 0.701E-12 -.100E+01
   0.229E+02 -.435E-12 0.186E+04   -.233E+02 0.181E-13 -.186E+04   -.100E+00 -.314E-19 -.288E+01   0.485E+00 -.183E-12 -.879E-01
   0.333E+02 -.336E-12 -.384E+03   -.328E+02 -.131E-13 0.385E+03   -.507E+00 -.121E-18 0.580E+00   0.542E-02 0.102E-12 -.168E+01
   -.414E+02 -.160E-12 0.144E+04   0.410E+02 -.662E-14 -.144E+04   0.112E+00 -.315E-18 -.618E+00   0.285E+00 -.515E-13 -.113E+01
   -.382E+02 -.525E-13 -.827E+03   0.378E+02 -.359E-14 0.829E+03   0.522E+00 0.121E-18 -.349E+00   -.736E-01 -.255E-13 -.169E+01
   -.357E+02 0.125E-14 0.304E+03   0.352E+02 -.131E-14 -.302E+03   0.491E+00 0.228E-18 -.553E+00   0.922E-02 0.935E-12 -.162E+01
   0.679E+01 0.600E-13 -.212E+04   -.827E+01 0.197E-13 0.211E+04   0.330E+00 -.200E-18 0.344E+01   0.799E+00 0.184E-12 0.726E-01
   0.232E+01 0.349E-11 0.126E+02   -.210E-12 0.233E-12 0.455E-12   -.277E+01 0.456E-18 0.362E+02   0.457E+00 -.348E-12 -.488E+02

 POSITION                                       TOTAL-FORCE (eV/Angst)
      3.30681      1.42065      4.69425         0.003640      0.000000      0.235643
      1.51130     -0.00000     12.69984         0.004246     -0.000000      0.020691
      1.51111      0.00000     22.40485        -0.132269      0.000000     -0.005529
      6.38415      1.42065      7.84716        -0.008120     -0.000000      0.004334
      6.35840      1.42065     17.55540        -0.084865     -0.000000      0.320523
      8.18729      0.00000      6.94648         0.003411     -0.000000     -0.014743
      8.18348      0.00000     16.69185         0.217142     -0.000000     -0.218082
      3.33724      1.42065     11.82139        -0.013237     -0.000000      0.037233
      3.33619      1.42065     21.54130        -0.332619     -0.000000     -0.856162
      7.73617      0.00000     13.17155        -0.012214      0.000000     -0.000208
      7.72084      0.00000     22.88670        -0.300566     -0.000000      1.090835
      2.83608      1.42065      8.32661        -0.021271      0.000000     -0.002918
      2.87354      1.42065     18.03725         0.021136     -0.000000     -0.044947
      2.00387     -0.00000      6.48980         0.021342      0.000000     -0.001939
      1.97375      0.00000     16.21000         0.056055      0.000000     -0.077004
      6.83156      1.42065     11.33063        -0.013349     -0.000000     -0.001220
      6.82105      1.42065     21.05945         0.012785     -0.000000      0.010327
      1.57406     -0.00000     10.22773        -0.004369      0.000000      0.023971
      1.56388      0.00000     19.93392        -0.086615     -0.000000     -0.089802
      6.37869      1.42065      5.40846        -0.080345     -0.000000      0.041338
      6.41117      1.42065     15.08447         0.209161      0.000000      0.049234
      8.13110      0.00000      9.43131         0.001663     -0.000000      0.009512
      8.13071      0.00000     19.16278        -0.214881      0.000000     -0.000572
      3.28313      1.42065     14.30152         0.050278      0.000000      0.027156
      3.28342      1.42065     24.01223         0.187249     -0.000000     -1.570092
      5.25975      0.00000     13.07476         0.003403      0.000000     -0.044803
      5.24874      0.00000     22.78600         0.549250     -0.000000      1.109620
      0.39338      1.42065      8.24728         0.027021     -0.000000     -0.022793
      0.40145      1.42065     17.93655        -0.104450     -0.000000     -0.028441
      4.42808      0.00000      6.67712        -0.042904     -0.000000      0.094188
      4.44585      0.00000     16.31070         0.207139     -0.000000     -0.272830
      9.30561      1.42065     11.39461        -0.009706      0.000000      0.005236
      9.29314      1.42065     21.16015        -0.253944      0.000000     -0.257078
      3.36966      0.00000     13.06877        -0.023510     -0.000000      0.020886
      3.37164      0.00000     22.78659        -0.215680     -0.000000      2.172676
      8.21977      1.42065      8.20144         0.038190      0.000000     -0.012351
      8.21893      1.42065     17.93714         0.223335     -0.000000     -0.274815
      6.34064     -0.00000      6.52660         0.054531     -0.000000     -0.027169
      6.32295      0.00000     16.31011        -0.640376     -0.000000      0.052643
      1.46472      1.42065     11.44797        -0.029546     -0.000000      0.002467
      1.47566      1.42065     21.15956         0.427182     -0.000000      0.328937
      8.07822     -0.00000     11.28396        -0.013327     -0.000000     -0.030423
      8.07008      0.00000     21.01581         0.535931      0.000000      0.118041
      3.25101      1.42065      6.29199         0.053111     -0.000000     -0.279797
      3.22279      1.42065     16.16636         0.013989     -0.000000      0.049799
      1.64280      0.00000      8.36545        -0.000609     -0.000000      0.001206
      1.62451      0.00000     18.08089         0.071327     -0.000000      0.165920
      6.48068      1.42065     13.20556        -0.004589      0.000000     -0.037605
      6.47180      1.42065     22.93034        -0.349158      0.000000     -1.821094
    total drift:                                0.006922      0.000000     -0.001718

  FREE ENERGIE OF THE ION-ELECTRON SYSTEM (eV)
  free  energy   TOTEN  =      -403.91008129 eV

  energy  without entropy=     -403.91008129  energy(sigma->0) =     -403.91008129

 d Force = 0.9181271E-04[-0.254E-04, 0.209E-03]  d Energy =-0.7364314E-03 0.828E-03
 d Force =-0.2282806E+00[-0.228E+00,-0.228E+00]  d Ewald  =-0.2282809E+00 0.381E-06

 reached required accuracy - stopping structural energy minimisation
 BZINTS: Fermi energy: -1.001012;310.000000 electrons
         Band energy:***********;  BLOECHL correction: -0.004607