 vasp.5.3.3 18Dez12 (build May 12 2016 12:04:25) complex

 executed on             LinuxIFC date 2019.03.04  18:51:55

 INCAR:
 POTCAR:   PAW_PBE Mn 06Sep2000
 POTCAR:   PAW_PBE O_s 07Sep2000
 POTCAR:    PAW_PBE Li 17Jan2003
 POTCAR:   PAW_PBE Mn 06Sep2000

 POTCAR:   PAW_PBE O_s 07Sep2000

 POTCAR:    PAW_PBE Li 17Jan2003

 PAW_PBE Mn 06Sep2000                   :
 PAW_PBE O_s 07Sep2000                  :
  PAW_PBE Li 17Jan2003                  :

 POSCAR: Li Mn30 O62  (P1) ~ CONTCAR (VASP)
  positions in direct lattice
  velocities in cartesian coordinates
 exchange correlation table for  LEXCH =        8
   RHO(1)=    0.500       N(1)  =     2000
   RHO(2)=  100.500       N(2)  =     4000

 ion  position               nearest neighbor table
   1  0.064  0.258  0.620-  52 1.90  52 1.90  72 1.93  72 1.93  63 1.93  31 1.94  10 2.92  10 2.92

   2  0.054  0.255  0.526-  51 1.89  51 1.89  32 1.92  71 1.93  64 1.93  71 1.93   9 2.92   9 2.92

[...]

  11  0.453  0.261  0.667-  42 1.88  41 1.89  41 1.89  62 1.95  62 1.95  53 1.99  93 2.66  93 2.66
                            93 2.78  93 2.78  20 3.02  20 3.02
  12  0.462  0.256  0.573-  40 1.89  40 1.89  43 1.92  54 1.92  61 1.93  61 1.93  19 2.92  19 2.92

[...]

  19  0.556  0.756  0.548-  32 1.89  32 1.89  51 1.90  54 1.93  54 1.93  61 1.94  12 2.92  12 2.92

  20  0.568  0.760  0.641-  31 1.88  31 1.88  52 1.89  62 1.93  53 1.99  53 2.00  93 2.73  11 3.02
                            11 3.02
  21  0.969  0.763  0.690-  78 1.87  78 1.87  88 1.93  42 1.98  42 1.99  41 2.04  93 2.74
  22  0.974  0.764  0.734-  79 1.89  79 1.90  83 1.90  83 1.90  89 1.93  73 1.93
  23  0.975  0.765  0.778-  80 1.90  80 1.90  84 1.90  84 1.90  74 1.93  90 1.93
  24  0.977  0.766  0.822-  81 1.90  81 1.90  85 1.90  85 1.90  75 1.93  91 1.94
  25  0.981  0.767  0.866-  82 1.90  82 1.90  86 1.90  86 1.90  92 1.91  76 1.95
  26  0.472  0.264  0.712-  73 1.90  73 1.90  88 1.91  88 1.92  83 1.92  78 1.95
  27  0.475  0.265  0.756-  74 1.90  74 1.90  89 1.90  89 1.90  84 1.93  79 1.93
  28  0.477  0.266  0.800-  75 1.90  75 1.90  90 1.90  90 1.90  80 1.93  85 1.93
  29  0.478  0.267  0.844-  76 1.90  76 1.90  91 1.90  91 1.90  86 1.93  81 1.94
  30  0.478  0.267  0.889-  87 1.83  77 1.89  77 1.89  92 1.92  92 1.92  82 1.96
  31  0.387  0.259  0.632-  20 1.88  20 1.88   1 1.94
  32  0.370  0.255  0.539-  19 1.89  19 1.89   2 1.92
  33  0.636  0.750  0.206-   3 1.79
  34  0.366  0.252  0.445-  18 1.89  18 1.89   4 1.92
  35  0.683  0.750  0.299-  17 1.90  17 1.90   5 1.92
  36  0.329  0.250  0.352-  16 1.89  16 1.89   6 1.92
  37  0.654  0.751  0.394-  15 1.90  15 1.90   7 1.91
  38  0.333  0.250  0.257-  14 1.90  14 1.90   8 1.94
  39  0.633  0.753  0.489-  13 1.89  13 1.89   9 1.90
  40  0.646  0.757  0.582-  12 1.89  12 1.89  10 1.90
  41  0.638  0.762  0.676-  11 1.89  11 1.89  93 1.91  21 2.04
  42  0.116  0.262  0.678-  11 1.88  21 1.98  21 1.99  93 2.25  93 2.25
  43  0.146  0.257  0.586-  10 1.89  10 1.89  12 1.92
  44  0.134  0.254  0.492-   9 1.89   9 1.89  13 1.92
  45  0.834  0.750  0.251-   8 1.90   8 1.90  14 1.92
  46  0.153  0.251  0.399-   7 1.89   7 1.89  15 1.93
  47  0.829  0.750  0.346-   6 1.90   6 1.90  16 1.91
  48  0.184  0.250  0.305-   5 1.90   5 1.90  17 1.92
  49  0.867  0.752  0.442-   4 1.89   4 1.89  18 1.91
  50  0.129  0.250  0.208-   3 1.88   3 1.88
  51  0.871  0.755  0.535-   2 1.89   2 1.89  19 1.90
  52  0.888  0.758  0.629-  20 1.89   1 1.90   1 1.90
  53  0.746  0.261  0.653-  93 1.97  93 1.97  11 1.99  20 1.99  20 2.00
  54  0.732  0.256  0.558-  12 1.92  19 1.93  19 1.93
  55  0.727  0.253  0.465-  13 1.93  18 1.93  18 1.94
  56  0.285  0.750  0.281-  17 1.93  17 1.93  14 1.95
  57  0.719  0.251  0.370-  16 1.94  16 1.94  15 1.94
  58  0.276  0.751  0.376-  15 1.92  15 1.92  16 1.95
  59  0.724  0.250  0.275-  14 1.93  14 1.93  17 1.94
  60  0.278  0.753  0.469-  13 1.93  13 1.93  18 1.94
  61  0.285  0.756  0.563-  12 1.93  12 1.93  19 1.94
  62  0.298  0.761  0.656-  93 1.77  20 1.93  11 1.95  11 1.95
  63  0.787  0.257  0.605-   1 1.93  10 1.93  10 1.93
  64  0.778  0.254  0.511-   2 1.93   9 1.93   9 1.93
  65  0.215  0.750  0.233-   8 1.92   8 1.92   3 2.00
  66  0.781  0.251  0.417-   7 1.93   7 1.93   4 1.94
  67  0.223  0.750  0.329-   6 1.93   6 1.93   5 1.95
  68  0.784  0.250  0.322-   5 1.93   5 1.93   6 1.94
  69  0.228  0.752  0.422-   4 1.93   4 1.93   7 1.94
  70  0.770  0.250  0.228-   8 1.93   3 1.96   3 1.96
  71  0.228  0.755  0.516-   2 1.93   2 1.93   9 1.94
  72  0.238  0.758  0.609-   1 1.93   1 1.93  10 1.94
  73  0.642  0.764  0.722-  26 1.90  26 1.90  22 1.93
  74  0.641  0.765  0.766-  27 1.90  27 1.90  23 1.93
  75  0.646  0.766  0.810-  28 1.90  28 1.90  24 1.93
  76  0.659  0.767  0.853-  29 1.90  29 1.90  25 1.95
  77  0.650  0.767  0.898-  30 1.89  30 1.89
  78  0.801  0.263  0.700-  21 1.87  21 1.87  26 1.95
  79  0.810  0.264  0.744-  22 1.89  22 1.90  27 1.93
  80  0.809  0.265  0.788-  23 1.90  23 1.90  28 1.93
  81  0.803  0.266  0.831-  24 1.90  24 1.90  29 1.94
  82  0.786  0.267  0.875-  25 1.90  25 1.90  30 1.96
  83  0.137  0.264  0.724-  22 1.90  22 1.90  26 1.92
  84  0.141  0.265  0.768-  23 1.90  23 1.90  27 1.93
  85  0.147  0.266  0.812-  24 1.90  24 1.90  28 1.93
  86  0.161  0.267  0.857-  25 1.90  25 1.90  29 1.93
  87  0.245  0.272  0.904-  30 1.83
  88  0.309  0.763  0.702-  26 1.91  26 1.92  21 1.93
  89  0.311  0.765  0.746-  27 1.90  27 1.90  22 1.93
  90  0.308  0.766  0.790-  28 1.90  28 1.90  23 1.93
  91  0.302  0.767  0.834-  29 1.90  29 1.90  24 1.94
  92  0.270  0.767  0.880-  25 1.91  30 1.92  30 1.92
  93  0.937  0.761  0.663-  62 1.77  41 1.91  53 1.97  53 1.97  42 2.25  42 2.25  11 2.66  11 2.66
                            20 2.73  21 2.74  11 2.78  11 2.78

  LATTYP: Found a simple orthorhombic cell.
 ALAT       =     2.8659999400
 B/A-ratio  =     1.5816469242
 C/A-ratio  =    34.8918360410

  Lattice vectors:

 A1 = (   0.0000000000,  -2.8659999400,   0.0000000000)
 A2 = (  -4.5329999900,   0.0000000000,   0.0000000000)
 A3 = (   0.0000000000,   0.0000000000,-100.0000000000)

Analysis of symmetry for initial positions (statically):
 Subroutine PRICEL returns:
 Original cell was already a primitive cell.

 Routine SETGRP: Setting up the symmetry group for a
 simple orthorhombic supercell.

 Subroutine GETGRP returns: Found  1 space group operations
 (whereof  1 operations were pure point group operations)
 out of a pool of  8 trial point group operations.

The static configuration has the point symmetry C_1 .

Analysis of symmetry for dynamics (positions and initial velocities):
 Subroutine PRICEL returns:
 Original cell was already a primitive cell.

 Routine SETGRP: Setting up the symmetry group for a
 simple orthorhombic supercell.

 Subroutine GETGRP returns: Found  1 space group operations
 (whereof  1 operations were pure point group operations)
 out of a pool of  8 trial point group operations.

The dynamic configuration has the point symmetry C_1 .

Analysis of magnetic symmetry:

 Subroutine MAGSYM returns: Found  1 space group operations
 (whereof  1 operations were pure point group operations)
 out of a pool of  1 trial space group operations
 (whereof  1 operations were pure point group operations)
 and found also     1 'primitive' translations

The magnetic configuration has the point symmetry C_1 .

 irot  :   1
 isymop:   1   0   0
           0   1   0
           0   0   1

 gtrans:     0.0000000     0.0000000     0.0000000

 ptrans:     0.0000000     0.0000000     0.0000000
 rotmap:
 (   1->   1)  (   2->   2)  (   3->   3)  (   4->   4)  (   5->   5)
 (   6->   6)  (   7->   7)  (   8->   8)  (   9->   9)  (  10->  10)
 (  11->  11)  (  12->  12)  (  13->  13)  (  14->  14)  (  15->  15)
 (  16->  16)  (  17->  17)  (  18->  18)  (  19->  19)  (  20->  20)
 (  21->  21)  (  22->  22)  (  23->  23)  (  24->  24)  (  25->  25)
 (  26->  26)  (  27->  27)  (  28->  28)  (  29->  29)  (  30->  30)
 (  31->  31)  (  32->  32)  (  33->  33)  (  34->  34)  (  35->  35)
 (  36->  36)  (  37->  37)  (  38->  38)  (  39->  39)  (  40->  40)
 (  41->  41)  (  42->  42)  (  43->  43)  (  44->  44)  (  45->  45)
 (  46->  46)  (  47->  47)  (  48->  48)  (  49->  49)  (  50->  50)
 (  51->  51)  (  52->  52)  (  53->  53)  (  54->  54)  (  55->  55)
 (  56->  56)  (  57->  57)  (  58->  58)  (  59->  59)  (  60->  60)
 (  61->  61)  (  62->  62)  (  63->  63)  (  64->  64)  (  65->  65)
 (  66->  66)  (  67->  67)  (  68->  68)  (  69->  69)  (  70->  70)
 (  71->  71)  (  72->  72)  (  73->  73)  (  74->  74)  (  75->  75)
 (  76->  76)  (  77->  77)  (  78->  78)  (  79->  79)  (  80->  80)
 (  81->  81)  (  82->  82)  (  83->  83)  (  84->  84)  (  85->  85)
 (  86->  86)  (  87->  87)  (  88->  88)  (  89->  89)  (  90->  90)
 (  91->  91)  (  92->  92)  (  93->  93)

 KPOINTS: Automatic mesh

Automatic generation of k-mesh.
Space group operators:
 irot       det(A)        alpha          n_x          n_y          n_z        tau_x        tau_y        tau_z
    1     1.000000     0.000000     1.000000     0.000000     0.000000     0.000000     0.000000     0.000000

 Subroutine IBZKPT returns following result:

 Found      4 irreducible k-points:

 Following reciprocal coordinates:
            Coordinates               Weight
  0.000000  0.000000  0.000000      1.000000
  0.500000  0.000000  0.000000      1.000000
  0.000000  0.333333  0.000000      2.000000
  0.500000  0.333333  0.000000      2.000000

 Following cartesian coordinates:
            Coordinates               Weight
  0.000000  0.000000  0.000000      1.000000
  0.110302  0.000000  0.000000      1.000000
  0.000000  0.116306  0.000000      2.000000
  0.110302  0.116306  0.000000      2.000000

 TETIRR: Found     15 inequivalent tetrahedra from       36

 I would recommend the setting:
   dimension x,y,z NGX =    22 NGY =   14 NGZ =  489
 SYSTEM =  unknown system
 POSCAR =  Li Mn30 O62  (P1) ~ CONTCAR (VASP)

 Startparameter for this run:
   NWRITE =      1    write-flag & timer
   PREC   = normal    normal or accurate (medium, high low for compatibility)
   ISTART =      0    job   : 0-new  1-cont  2-samecut
   ICHARG =      2    charge: 1-file 2-atom 10-const
   ISPIN  =      2    spin polarized calculation?
   LNONCOLLINEAR =      F non collinear calculations
   LSORBIT =      F    spin-orbit coupling
   INIWAV =      1    electr: 0-lowe 1-rand  2-diag
   LASPH  =      F    aspherical Exc in radial PAW
   METAGGA=      F    non-selfconsistent MetaGGA calc.

 Electronic Relaxation 1
   ENCUT  =  400.0 eV  29.40 Ry    5.42 a.u.   7.39  4.67163.07*2*pi/ulx,y,z
   ENINI  =  400.0     initial cutoff
   ENAUG  =  500.7 eV  augmentation charge cutoff
   NELM   =     60;   NELMIN=  2; NELMDL= -5     # of ELM steps
   EDIFF  = 0.1E-03   stopping-criterion for ELM
   LREAL  =      F    real-space projection
   NLSPLINE    = F    spline interpolate recip. space projectors
   LCOMPAT=      F    compatible to vasp.4.4
   GGA_COMPAT  = T    GGA compatible to vasp.4.4-vasp.4.6
   LMAXPAW     = -100 max onsite density
   LMAXMIX     =    4 max onsite mixed and CHGCAR
[...]

  length of vectors
     4.532999990  2.865999940100.000000000     0.220604457  0.348918360  0.010000000

 FORCES acting on ions
    electron-ion (+dipol)            ewald-force                    non-local-force                 convergence-correction
   -.133E+02 -.203E-04 -.118E+04   0.133E+02 0.160E-02 0.119E+04   -.114E+00 0.367E-02 -.659E+00   0.540E-01 -.177E-02 -.889E+01
   -.169E+02 0.406E-02 0.899E+03   0.171E+02 -.474E-02 -.900E+03   -.533E-01 0.859E-03 -.942E+00   -.129E+00 0.190E-03 0.164E+01
   -.202E+02 -.617E-02 0.757E+04   0.199E+02 0.619E-02 -.759E+04   -.148E-01 0.110E-03 0.109E+01   0.224E+00 -.603E-06 0.187E+02
   -.108E+02 0.116E-01 0.297E+04   0.111E+02 -.114E-01 -.299E+04   -.137E+00 -.476E-03 -.990E+00   -.176E+00 0.280E-03 0.180E+02
   0.129E+02 -.632E-03 0.562E+04   -.129E+02 0.786E-03 -.565E+04   -.180E+00 0.395E-04 0.976E+00   0.119E+00 0.129E-03 0.264E+02
   -.959E+01 0.804E-02 0.500E+04   0.946E+01 -.787E-02 -.503E+04   0.104E+00 -.993E-04 -.959E+00   0.348E-01 0.850E-04 0.259E+02
   0.186E+02 0.158E-02 0.359E+04   -.185E+02 -.159E-02 -.361E+04   -.133E-01 0.924E-04 0.110E+01   -.521E-01 0.255E-03 0.213E+02
   -.235E+02 0.452E-03 0.701E+04   0.231E+02 -.469E-03 -.703E+04   0.966E-01 0.362E-04 -.783E+00   0.343E+00 0.286E-04 0.234E+02
   0.136E+02 -.116E-01 0.153E+04   -.136E+02 0.124E-01 -.153E+04   0.157E+00 -.323E-03 0.121E+01   -.472E-01 -.239E-03 0.370E+01
   0.161E+02 -.263E-01 -.561E+03   -.163E+02 0.251E-01 0.565E+03   0.397E-01 0.819E-03 0.121E+01   0.753E-01 0.273E-03 -.608E+01
   0.133E+02 0.116E+00 -.226E+04   -.138E+02 -.114E+00 0.228E+04   0.344E+00 -.325E-02 -.131E+01   0.435E-01 -.259E-03 -.187E+02
   0.132E+02 0.103E-01 -.142E+03   -.131E+02 -.111E-01 0.148E+03   0.741E-01 0.146E-02 -.872E+00   -.112E+00 -.600E-03 -.575E+01
   0.132E+02 0.109E-01 0.194E+04   -.134E+02 -.115E-01 -.195E+04   0.117E+00 0.421E-03 -.936E+00   0.960E-01 0.307E-03 0.818E+01
   -.763E+01 0.107E-02 0.662E+04   0.776E+01 -.815E-03 -.664E+04   0.900E-01 0.148E-04 0.103E+01   -.242E+00 -.166E-03 0.264E+02
   0.855E+01 0.944E-02 0.399E+04   -.870E+01 -.958E-02 -.401E+04   0.353E-03 0.138E-03 -.953E+00   0.155E+00 0.209E-03 0.245E+02
   -.182E+02 -.596E-03 0.461E+04   0.179E+02 0.942E-03 -.464E+04   0.161E+00 0.444E-04 0.107E+01   0.894E-01 -.152E-03 0.260E+02
   0.143E+02 0.616E-02 0.600E+04   -.140E+02 -.607E-02 -.603E+04   -.177E+00 -.484E-03 -.942E+00   -.201E+00 0.269E-03 0.261E+02
   -.154E+02 -.760E-02 0.256E+04   0.154E+02 0.829E-02 -.258E+04   -.106E+00 0.237E-03 0.115E+01   -.307E-01 -.642E-03 0.119E+02
   -.115E+02 -.665E-02 0.487E+03   0.117E+02 0.732E-02 -.484E+03   -.832E-01 -.869E-04 0.122E+01   -.160E+00 0.114E-03 -.488E+01
   -.168E+02 -.145E+00 -.160E+04   0.164E+02 0.134E+00 0.161E+04   0.443E+00 0.872E-02 0.138E+01   -.337E-01 -.860E-04 -.126E+02
   -.110E+02 0.428E-01 -.277E+04   0.109E+02 -.356E-01 0.280E+04   0.170E+00 -.973E-02 -.162E+01   -.445E-01 -.482E-03 -.214E+02
   -.991E+00 0.174E-01 -.395E+04   0.932E+00 -.168E-01 0.397E+04   0.561E-01 -.316E-03 0.601E-01   -.542E-01 0.285E-03 -.209E+02
   -.164E+01 -.153E-02 -.516E+04   0.155E+01 0.132E-02 0.518E+04   -.442E-01 -.368E-04 -.942E-01   0.209E+00 0.302E-03 -.145E+02
   -.419E+01 -.668E-03 -.636E+04   0.411E+01 0.661E-03 0.638E+04   0.211E-01 -.577E-04 -.491E-01   0.997E-01 0.123E-03 -.137E+02
   -.564E+01 0.250E-01 -.754E+04   0.548E+01 -.227E-01 0.755E+04   0.697E-01 0.108E-02 -.193E+00   -.443E-01 0.186E-02 -.145E+02
   0.269E+01 0.250E-01 -.334E+04   -.284E+01 -.225E-01 0.337E+04   0.474E-01 0.182E-03 -.267E+00   0.167E+00 -.516E-03 -.223E+02
   0.168E+01 0.197E-02 -.455E+04   -.158E+01 -.182E-02 0.457E+04   0.295E-02 -.389E-04 -.861E-01   -.112E+00 -.120E-03 -.176E+02
   0.266E+01 -.246E-02 -.576E+04   -.257E+01 0.237E-02 0.578E+04   0.189E-01 0.177E-03 -.926E-01   -.197E+00 -.191E-03 -.131E+02
   0.607E+01 -.466E-02 -.695E+04   -.587E+01 0.488E-02 0.697E+04   -.711E-01 0.430E-03 -.789E-01   -.124E+00 0.102E-03 -.150E+02
   -.208E+02 0.479E+00 -.801E+04   0.194E+02 -.447E+00 0.802E+04   0.389E+00 0.304E-01 -.104E+01   0.137E+01 -.203E-01 -.133E+02
   0.229E+02 -.258E+00 -.118E+04   -.281E+02 0.342E+00 0.118E+04   0.460E+01 -.817E-01 0.104E+02   0.760E+00 0.923E-02 -.872E+01
   0.284E+02 -.718E-01 0.601E+03   -.321E+02 0.108E+00 -.607E+03   0.392E+01 -.352E-01 0.795E+01   -.932E-01 -.190E-03 -.180E+01
   0.112E+03 0.851E-03 0.665E+04   -.135E+03 -.410E-02 -.668E+04   0.238E+02 0.349E-02 0.200E+02   -.647E-01 0.929E-04 0.771E+01
   0.277E+02 -.548E-01 0.238E+04   -.311E+02 0.848E-01 -.240E+04   0.342E+01 -.295E-01 0.743E+01   -.545E-01 0.329E-03 0.125E+02
   -.434E+02 0.936E-02 0.501E+04   0.515E+02 -.164E-01 -.503E+04   -.798E+01 0.722E-02 -.159E+01   -.784E-01 0.148E-03 0.224E+02
   0.413E+02 -.281E-01 0.410E+04   -.492E+02 0.417E-01 -.412E+04   0.777E+01 -.132E-01 0.200E+01   0.388E-01 0.667E-04 0.222E+02
   -.329E+02 0.342E-01 0.326E+04   0.369E+02 -.546E-01 -.327E+04   -.410E+01 0.207E-01 -.568E+01   0.150E-01 -.178E-03 0.198E+02
   0.424E+02 -.520E-02 0.582E+04   -.503E+02 0.735E-02 -.585E+04   0.780E+01 -.191E-02 0.363E+01   -.929E-02 -.624E-04 0.218E+02
   -.229E+02 0.556E-01 0.147E+04   0.237E+02 -.903E-01 -.147E+04   -.821E+00 0.351E-01 -.854E+01   -.862E-01 -.350E-03 0.524E+01
   -.261E+02 0.770E-01 -.308E+03   0.273E+02 -.122E+00 0.320E+03   -.118E+01 0.443E-01 -.677E+01   0.639E-01 0.796E-03 -.486E+01
   -.258E+02 0.723E-01 -.215E+04   0.294E+02 -.142E+00 0.218E+04   -.349E+01 0.691E-01 -.159E+02   -.912E-01 -.174E-03 -.171E+02
   0.491E+01 -.101E+00 -.210E+04   -.123E+02 0.207E+00 0.211E+04   0.721E+01 -.103E+00 0.546E+01   0.184E+00 -.422E-02 -.170E+02
   -.262E+02 -.728E-01 -.293E+03   0.301E+02 0.113E+00 0.290E+03   -.396E+01 -.400E-01 0.861E+01   -.617E-01 -.457E-03 -.494E+01
   -.261E+02 -.633E-01 0.150E+04   0.290E+02 0.965E-01 -.151E+04   -.298E+01 -.333E-01 0.833E+01   0.138E+00 0.633E-03 0.466E+01
   0.360E+02 0.356E-02 0.585E+04   -.416E+02 -.524E-02 -.587E+04   0.563E+01 0.214E-02 -.379E+01   -.369E-01 -.486E-03 0.213E+02
   -.339E+02 -.395E-01 0.324E+04   0.395E+02 0.611E-01 -.327E+04   -.538E+01 -.208E-01 0.506E+01   -.722E-01 -.182E-03 0.193E+02
   0.404E+02 0.210E-01 0.414E+04   -.473E+02 -.340E-01 -.416E+04   0.691E+01 0.135E-01 -.275E+01   0.736E-02 -.186E-03 0.223E+02
   -.436E+02 -.159E-01 0.495E+04   0.520E+02 0.231E-01 -.498E+04   -.850E+01 -.720E-02 0.142E+01   0.753E-01 0.273E-03 0.224E+02
   0.263E+02 0.466E-01 0.236E+04   -.281E+02 -.768E-01 -.237E+04   0.186E+01 0.308E-01 -.783E+01   -.106E-01 -.603E-03 0.133E+02
   -.118E+03 0.411E-03 0.667E+04   0.139E+03 0.362E-03 -.671E+04   -.209E+02 -.853E-03 0.278E+02   0.345E+00 0.222E-03 0.964E+01
   0.240E+02 0.666E-01 0.585E+03   -.250E+02 -.106E+00 -.576E+03   0.986E+00 0.395E-01 -.753E+01   -.546E-01 0.643E-04 -.114E+01
   0.201E+02 0.133E+00 -.121E+04   -.184E+02 -.218E+00 0.122E+04   -.114E+01 0.862E-01 -.802E+01   -.544E+00 -.295E-02 -.880E+01
   -.160E+03 0.354E+00 -.163E+04   0.184E+03 -.446E+00 0.164E+04   -.237E+02 0.863E-01 -.132E+01   -.952E+00 -.606E-02 -.136E+02
   -.180E+03 0.627E-01 0.163E+03   0.216E+03 -.928E-01 -.153E+03   -.353E+02 0.308E-01 -.554E+01   -.140E+00 -.225E-03 -.495E+01
   -.180E+03 0.499E-01 0.194E+04   0.215E+03 -.729E-01 -.194E+04   -.352E+02 0.220E-01 -.665E+01   -.103E+00 0.126E-02 0.867E+01
   0.185E+03 -.894E-02 0.538E+04   -.220E+03 0.119E-01 -.540E+04   0.351E+02 -.233E-02 0.524E+01   -.150E+00 -.337E-03 0.227E+02
   -.184E+03 0.212E-01 0.371E+04   0.220E+03 -.332E-01 -.373E+04   -.352E+02 0.120E-01 -.576E+01   -.156E+00 0.460E-03 0.221E+02
   0.183E+03 -.295E-01 0.366E+04   -.218E+03 0.415E-01 -.369E+04   0.352E+02 -.111E-01 0.570E+01   0.256E+00 -.525E-03 0.218E+02
   -.184E+03 0.359E-02 0.544E+04   0.219E+03 -.674E-02 -.546E+04   -.351E+02 0.285E-02 -.517E+01   0.862E-01 0.439E-03 0.228E+02
   0.179E+03 -.513E-01 0.192E+04   -.214E+03 0.732E-01 -.193E+04   0.351E+02 -.206E-01 0.722E+01   0.623E-01 -.908E-03 0.808E+01
[...]
   0.141E+02 0.419E-01 -.470E+04   -.112E+02 -.627E-01 0.472E+04   -.267E+01 0.195E-01 -.127E+02   -.143E+00 0.106E-02 -.114E+02
   0.167E+02 0.265E-01 -.571E+04   -.160E+02 -.384E-01 0.573E+04   -.638E+00 0.123E-01 -.108E+02   -.942E-02 -.594E-03 -.123E+02
   0.264E+02 0.292E-01 -.669E+04   -.331E+02 -.315E-01 0.671E+04   0.648E+01 0.130E-02 -.622E+01   0.156E+00 -.549E-02 -.121E+02
   -.130E+02 -.542E-01 -.310E+04   0.859E+01 0.836E-01 0.311E+04   0.430E+01 -.314E-01 0.131E+02   0.702E-01 0.117E-02 -.188E+02
   -.141E+02 -.428E-01 -.415E+04   0.113E+02 0.668E-01 0.415E+04   0.297E+01 -.214E-01 0.120E+02   -.918E-01 -.248E-02 -.135E+02
   -.177E+02 -.303E-01 -.519E+04   0.159E+02 0.449E-01 0.519E+04   0.188E+01 -.163E-01 0.111E+02   -.978E-01 0.115E-02 -.112E+02
   -.246E+02 -.111E-01 -.622E+04   0.248E+02 0.266E-01 0.622E+04   -.235E+00 -.150E-01 0.875E+01   0.348E-01 -.186E-02 -.128E+02
   0.122E+03 0.159E-01 -.712E+04   -.139E+03 0.947E-01 0.715E+04   0.170E+02 -.146E+00 -.246E+02   -.547E+00 0.360E-01 -.696E+01
   0.124E+02 -.628E-01 -.258E+04   -.965E+01 0.133E+00 0.259E+04   -.236E+01 -.715E-01 0.120E+02   -.355E+00 0.106E-02 -.192E+02
   0.126E+02 -.454E-01 -.362E+04   -.889E+01 0.694E-01 0.363E+04   -.360E+01 -.232E-01 0.130E+02   -.105E+00 -.853E-03 -.168E+02
   0.159E+02 -.400E-01 -.467E+04   -.137E+02 0.596E-01 0.467E+04   -.247E+01 -.208E-01 0.117E+02   0.194E+00 0.771E-03 -.114E+02
   0.206E+02 -.231E-01 -.571E+04   -.195E+02 0.339E-01 0.571E+04   -.100E+01 -.135E-01 0.103E+02   0.674E-02 0.163E-02 -.123E+02
   0.390E+02 -.488E-01 -.673E+04   -.435E+02 0.482E-01 0.674E+04   0.476E+01 -.312E-01 0.127E+01   -.112E+00 0.115E-01 -.125E+02
   -.492E+01 -.129E-01 -.299E+03   0.533E+01 0.114E-01 0.301E+03   -.354E+00 0.722E-03 0.441E+00   -.149E-01 0.176E-04 -.249E+01
   -.196E+02 0.617E-01 -.103E+03   0.739E-12 0.343E-12 0.177E-10   0.174E+02 -.905E-01 -.843E+00   0.219E+01 0.356E-01 0.104E+03

 POSITION                                       TOTAL-FORCE (eV/Angst)
      0.29202      0.73957     61.95764        -0.108901      0.003406     -0.355352
      0.24258      0.72985     52.60752        -0.019670      0.000300     -0.026746
      4.29230      2.14855     21.70415        -0.166356      0.000053      0.017123
      0.23048      0.72160     43.24961         0.000825     -0.000010     -0.072220
      4.41583      2.14953     31.26533        -0.008131      0.000248     -0.021562
      0.15447      0.71710     33.81013         0.003754      0.000078      0.106896
      4.34845      2.15336     40.73184         0.011830      0.000259      0.206347
      0.15654      0.71566     24.28537         0.009703     -0.000027     -0.100690
      4.31037      2.16066     50.10660         0.057806      0.000243      0.165009
      4.35649      2.17056     59.45933        -0.108131     -0.000116     -0.392618
      2.05492      0.74872     66.73312        -0.113939     -0.001197      0.060023
      2.09332      0.73479     57.28583         0.067502      0.000069     -0.344546
      2.05161      0.72538     47.93285        -0.023074      0.000086      0.016039
      2.43167      2.14880     26.50550        -0.026266      0.000027      0.103155
      2.08294      0.71897     38.53851         0.012251      0.000142      0.224375
      2.41991      2.15101     36.00614         0.000489      0.000164      0.296204
      2.15006      0.71603     29.05941         0.007437     -0.000205     -0.045348
      2.50282      2.15658     45.42633        -0.059918      0.000213      0.275209
      2.52119      2.16535     54.78097         0.025714      0.000614     -0.282208
      2.57423      2.17718     64.12568        -0.010450     -0.002122      0.067400
      4.39148      2.18567     69.02379        -0.019858     -0.003073     -0.072125
      4.41730      2.19030     73.39513        -0.057129      0.000428     -0.135706
      4.42145      2.19355     77.76948         0.075843     -0.000015      0.135592
      4.42658      2.19617     82.17313         0.036610     -0.000016      0.060818
      4.44555      2.19780     86.62399        -0.140979      0.005158      0.139280
      2.13887      0.75561     71.21198         0.068456      0.002061     -0.129532
      2.15296      0.75896     75.57915        -0.009474     -0.000085      0.002545
      2.16237      0.76201     79.96723        -0.085229     -0.000176      0.134397
      2.16459      0.76411     84.39415         0.012919      0.000680     -0.008848
      2.16548      0.76586     88.87523         0.408180      0.042016     -0.764607
      1.75430      0.74241     63.23003         0.183992      0.011385      0.119113
      1.67550      0.73189     53.88946         0.063469      0.000359      0.077426
      2.88078      2.14833     20.59794         0.193607      0.000258     -0.016719
      1.65927      0.72321     44.53416        -0.008710      0.000720     -0.090089
      3.09497      2.14910     29.86881         0.032913      0.000231     -0.010228
      1.49050      0.71783     35.19538        -0.101400      0.000413     -0.128963
      2.96254      2.15219     39.41778        -0.087007      0.000142     -0.110123
      1.51013      0.71576     25.67518        -0.032737      0.000094     -0.049299
      2.86962      2.15875     48.86304        -0.061766     -0.000004     -0.024802
      2.92733      2.16831     58.20023         0.096903      0.000286      0.162882
      2.89211      2.18247     67.63793         0.019832     -0.000897      0.015235
      0.52631      0.75111     67.82264         0.007477     -0.000492      0.001330
      0.66256      0.73705     58.56476        -0.117259      0.000035      0.155982
      0.60760      0.72725     49.20236         0.009077      0.000548     -0.044861
      3.78188      2.14868     25.14194         0.011165     -0.000097     -0.011841
      0.69538      0.72009     39.87399         0.096245      0.000558     -0.130779
      3.75723      2.15023     34.63747         0.054717      0.000257     -0.100546
      0.83216      0.71643     30.46195        -0.008208      0.000164     -0.012485
      3.92873      2.15492     44.16243         0.059058     -0.000102     -0.032581
      0.58448      0.71552     20.80912        -0.133312      0.000067      0.177154
      3.94896      2.16329     53.52645        -0.007407      0.000259      0.062594
      4.02485      2.17357     62.91465         0.015754     -0.001896      0.085743
      3.38191      0.74766     65.25489        -0.064388     -0.011397     -0.244983
      3.32025      0.73276     55.80280        -0.015109      0.000529      0.147075
      3.29331      0.72392     46.45900         0.032897      0.000154     -0.057504
      1.29403      2.14897     28.09276        -0.007178      0.000194     -0.021870
      3.25873      0.71817     37.00034         0.022599      0.000305     -0.163310
      1.25070      2.15177     37.56425        -0.030269      0.000301     -0.153409
      3.28350      0.71583     27.47954         0.012012      0.000073     -0.016528
      1.25975      2.15804     46.91937        -0.006417      0.000266     -0.030803
[...]
      3.67325      0.75755     74.38706        -0.053277      0.000341      0.046953
      3.66906      0.76080     78.76055         0.027259     -0.000262     -0.060836
      3.64084      0.76333     83.13827         0.009961     -0.000249      0.028461
      3.56125      0.76498     87.50174        -0.113384     -0.006519      0.133368
      0.61932      0.75693     72.38017        -0.025631     -0.000854      0.092592
      0.64113      0.76029     76.77329         0.011553      0.000065     -0.007357
      0.66812      0.76299     81.19471         0.013623     -0.000567     -0.061936
      0.72980      0.76476     85.68312        -0.007160     -0.001473     -0.016856
      1.10920      0.78042     90.36425        -0.248647      0.000593      0.310183
      1.40154      2.18805     70.17733         0.008337     -0.000562      0.060247
      1.40890      2.19167     74.57179         0.022326     -0.000140      0.086890
      1.39810      2.19476     78.97859        -0.030565     -0.000523     -0.060889
      1.36837      2.19697     83.42698         0.030540     -0.001066     -0.010498
      1.22546      2.19964     88.00882         0.103101     -0.020408      0.131672
      4.24747      2.18132     66.28679         0.039586     -0.000811      0.034326
    total drift:                                0.025302      0.006874      0.203011

  FREE ENERGIE OF THE ION-ELECTRON SYSTEM (eV)
  free  energy   TOTEN  =      -644.27199691 eV

  energy  without entropy=     -644.27199691  energy(sigma->0) =     -644.27199691

 BZINTS: Fermi energy:  0.445038;583.000000 electrons
         Band energy:***********;  BLOECHL correction: -0.084911