 vasp.5.3.3 18Dez12 (build May 12 2016 12:04:25) complex

 executed on             LinuxIFC date 2019.03.14  12:56:09

 INCAR:
 POTCAR:   PAW_PBE Mn 06Sep2000
 POTCAR:   PAW_PBE O_s 07Sep2000
 POTCAR:    PAW_PBE Li 17Jan2003
 POTCAR:   PAW_PBE Mn 06Sep2000

 POTCAR:   PAW_PBE O_s 07Sep2000

 POTCAR:    PAW_PBE Li 17Jan2003

 PAW_PBE Mn 06Sep2000                   :
 PAW_PBE O_s 07Sep2000                  :
  PAW_PBE Li 17Jan2003                  :

 POSCAR: (Li2 Mn15 O30)2  (P1) ~ CONTCAR (VASP)
  positions in direct lattice
  velocities in cartesian coordinates
 exchange correlation table for  LEXCH =        8
   RHO(1)=    0.500       N(1)  =     2000
   RHO(2)=  100.500       N(2)  =     4000

 ion  position               nearest neighbor table
   1  0.066  0.259  0.605-  52 1.91  52 1.91  63 1.93  31 1.94  72 1.95  72 1.95  10 2.95  10 2.95

   2  0.058  0.255  0.470-  51 1.91  51 1.91  64 1.94  32 1.94  71 1.95  71 1.95   9 2.95   9 2.95

[...]

  20  0.567  0.760  0.636-  31 1.91  31 1.91  52 1.93  62 1.94  53 1.95  53 1.95  11 2.95  11 2.95

  21  0.964  0.761  0.703-  42 1.92  77 1.92  77 1.92  42 1.92  41 1.93  86 1.95
  22  0.960  0.762  0.766-  82 1.92  82 1.92  78 1.93  78 1.93  73 1.94  87 1.96
  23  0.969  0.763  0.832-  79 1.95  79 1.95  83 1.95  83 1.95  88 2.06  74 2.06  91 2.75  91 2.75
                            91 2.75  91 2.75
  24  0.976  0.761  0.898-  80 1.92  80 1.92  89 1.93  84 1.94  84 1.94  75 1.96
  25  0.971  0.759  0.961-  81 1.92  81 1.92  85 1.93  85 1.93  90 1.95  76 1.95
  26  0.463  0.262  0.734-  86 1.92  86 1.92  73 1.93  73 1.93  77 1.94  82 1.95
  27  0.459  0.262  0.797-  87 1.90  87 1.90  78 1.93  74 2.00  74 2.00  83 2.05  91 2.42
  28  0.477  0.262  0.867-  75 1.90  75 1.90  84 1.94  88 2.01  88 2.01  79 2.06  91 2.42
  29  0.473  0.260  0.929-  76 1.92  76 1.92  89 1.93  89 1.93  85 1.95  80 1.96
  30  0.469  0.258  0.992-  90 1.92  90 1.92  33 1.92  33 1.92  50 1.94  81 1.96
  31  0.389  0.259  0.623-  20 1.91  20 1.91   1 1.94
  32  0.381  0.256  0.487-  19 1.91  19 1.91   2 1.94
  33  0.643  0.758  0.006-  30 1.92  30 1.92   3 1.94
  34  0.374  0.253  0.352-  18 1.92  18 1.92   4 1.94
  35  0.676  0.754  0.141-  17 1.92  17 1.92   5 1.94
  36  0.339  0.252  0.217-  16 1.92  16 1.92   6 1.94
  37  0.647  0.752  0.279-  15 1.92  15 1.92   7 1.94
  38  0.336  0.255  0.080-  14 1.92  14 1.92   8 1.94
  39  0.628  0.754  0.416-  13 1.92  13 1.92   9 1.93
  40  0.642  0.757  0.551-  12 1.91  12 1.92  10 1.93
  41  0.641  0.761  0.686-  11 1.91  11 1.91  21 1.93
  42  0.131  0.261  0.689-  21 1.92  21 1.92  11 1.94
  43  0.142  0.258  0.555-  10 1.91  10 1.91  12 1.93
  44  0.128  0.254  0.420-   9 1.91   9 1.91  13 1.94
  45  0.836  0.756  0.073-   8 1.92   8 1.92  14 1.94
  46  0.146  0.252  0.285-   7 1.92   7 1.92  15 1.93
  47  0.839  0.752  0.210-   6 1.92   6 1.92  16 1.94
  48  0.175  0.253  0.149-   5 1.92   5 1.92  17 1.94
  49  0.874  0.753  0.348-   4 1.92   4 1.92  18 1.94
  50  0.155  0.257  0.011-   3 1.92   3 1.92  30 1.94
  51  0.882  0.755  0.483-   2 1.91   2 1.91  19 1.93
  52  0.891  0.759  0.618-   1 1.91   1 1.91  20 1.93
  53  0.733  0.260  0.651-  11 1.93  20 1.95  20 1.95
  54  0.727  0.256  0.516-  12 1.93  19 1.95  19 1.95
  55  0.719  0.253  0.380-  13 1.94  18 1.95  18 1.95
  56  0.293  0.754  0.115-  14 1.95  17 1.95  17 1.95
  57  0.712  0.252  0.244-  15 1.95  16 1.95  16 1.95
  58  0.285  0.752  0.252-  16 1.94  15 1.95  15 1.95
  59  0.716  0.255  0.106-  14 1.95  14 1.95  17 1.95
  60  0.287  0.754  0.387-  18 1.94  13 1.95  13 1.95
  61  0.295  0.757  0.523-  19 1.94  12 1.95  12 1.95
  62  0.300  0.760  0.657-  20 1.94  11 1.95  11 1.95
  63  0.798  0.258  0.583-   1 1.93  10 1.95  10 1.95
  64  0.788  0.255  0.448-   2 1.94   9 1.95   9 1.95
  65  0.215  0.756  0.046-   3 1.95   8 1.95   8 1.95
  66  0.790  0.252  0.312-   4 1.94   7 1.95   7 1.95
  67  0.217  0.753  0.184-   5 1.94   6 1.95   6 1.95
  68  0.793  0.253  0.175-   5 1.95   5 1.95   6 1.95
  69  0.222  0.753  0.320-   7 1.94   4 1.95   4 1.95
  70  0.791  0.257  0.038-   8 1.94   3 1.95   3 1.95
  71  0.222  0.755  0.455-   9 1.94   2 1.95   2 1.95
  72  0.232  0.758  0.590-  10 1.94   1 1.95   1 1.95
  73  0.626  0.762  0.749-  26 1.93  26 1.93  22 1.94
  74  0.621  0.763  0.813-  27 2.00  27 2.00  23 2.06  91 2.08  91 2.08
  75  0.645  0.762  0.880-  28 1.90  28 1.90  24 1.96
  76  0.639  0.760  0.944-  29 1.92  29 1.92  25 1.95
  77  0.800  0.261  0.718-  21 1.92  21 1.92  26 1.94
  78  0.799  0.262  0.780-  27 1.93  22 1.93  22 1.93
  79  0.801  0.262  0.847-  91 1.85  23 1.95  23 1.95  28 2.06
  80  0.808  0.261  0.912-  24 1.92  24 1.92  29 1.96
  81  0.804  0.259  0.975-  25 1.92  25 1.92  30 1.96
  82  0.128  0.262  0.752-  22 1.92  22 1.92  26 1.95
  83  0.137  0.263  0.817-  91 1.85  23 1.95  23 1.95  27 2.05
  84  0.138  0.261  0.883-  28 1.94  24 1.94  24 1.94
  85  0.139  0.260  0.947-  25 1.93  25 1.93  29 1.95
  86  0.300  0.762  0.720-  26 1.92  26 1.92  21 1.95
  87  0.292  0.762  0.783-  27 1.90  27 1.90  22 1.96
  88  0.316  0.762  0.850-  28 2.01  28 2.01  23 2.06  91 2.07  91 2.08
  89  0.310  0.760  0.915-  29 1.93  29 1.93  24 1.93
  90  0.301  0.758  0.978-  30 1.92  30 1.92  25 1.95
  91  0.469  0.263  0.832-  79 1.85  83 1.85  88 2.07  74 2.08  88 2.08  74 2.08  27 2.42  28 2.42
                            23 2.75  23 2.75  23 2.75  23 2.75

  LATTYP: Found a triclinic cell.
 ALAT       =     2.9379692979
 B/A-ratio  =     1.8699631449
 C/A-ratio  =    23.4289455485
 COS(alpha) =     0.0244561875
 COS(beta)  =     0.0426665822
 COS(gamma) =     0.5347687165

  Lattice vectors:

 A1 = (  -0.0000018318,  -2.9379692978,   0.0000187856)
 A2 = (  -4.6423301387,  -2.9379599521,  -0.0060719908)
 A3 = (  -0.0433222041,  -2.9373308536, -68.7708081845)

Analysis of symmetry for initial positions (statically):
 Subroutine PRICEL returns:
 Original cell was already a primitive cell.

 Routine SETGRP: Setting up the symmetry group for a
 triclinic supercell.

 Subroutine GETGRP returns: Found  1 space group operations
 (whereof  1 operations were pure point group operations)
 out of a pool of  2 trial point group operations.

The static configuration has the point symmetry C_1 .

Analysis of symmetry for dynamics (positions and initial velocities):
 Subroutine PRICEL returns:
 Original cell was already a primitive cell.

 Routine SETGRP: Setting up the symmetry group for a
 triclinic supercell.

 Subroutine GETGRP returns: Found  1 space group operations
 (whereof  1 operations were pure point group operations)
 out of a pool of  2 trial point group operations.

The dynamic configuration has the point symmetry C_1 .

Analysis of magnetic symmetry:

 Subroutine MAGSYM returns: Found  1 space group operations
 (whereof  1 operations were pure point group operations)
 out of a pool of  1 trial space group operations
 (whereof  1 operations were pure point group operations)
 and found also     1 'primitive' translations

The magnetic configuration has the point symmetry C_1 .

 irot  :   1
 isymop:   1   0   0
           0   1   0
           0   0   1

 gtrans:     0.0000000     0.0000000     0.0000000

 ptrans:     0.0000000     0.0000000     0.0000000
 rotmap:
 (   1->   1)  (   2->   2)  (   3->   3)  (   4->   4)  (   5->   5)
 (   6->   6)  (   7->   7)  (   8->   8)  (   9->   9)  (  10->  10)
 (  11->  11)  (  12->  12)  (  13->  13)  (  14->  14)  (  15->  15)
 (  16->  16)  (  17->  17)  (  18->  18)  (  19->  19)  (  20->  20)
 (  21->  21)  (  22->  22)  (  23->  23)  (  24->  24)  (  25->  25)
 (  26->  26)  (  27->  27)  (  28->  28)  (  29->  29)  (  30->  30)
 (  31->  31)  (  32->  32)  (  33->  33)  (  34->  34)  (  35->  35)
 (  36->  36)  (  37->  37)  (  38->  38)  (  39->  39)  (  40->  40)
 (  41->  41)  (  42->  42)  (  43->  43)  (  44->  44)  (  45->  45)
 (  46->  46)  (  47->  47)  (  48->  48)  (  49->  49)  (  50->  50)
 (  51->  51)  (  52->  52)  (  53->  53)  (  54->  54)  (  55->  55)
 (  56->  56)  (  57->  57)  (  58->  58)  (  59->  59)  (  60->  60)
 (  61->  61)  (  62->  62)  (  63->  63)  (  64->  64)  (  65->  65)
 (  66->  66)  (  67->  67)  (  68->  68)  (  69->  69)  (  70->  70)
 (  71->  71)  (  72->  72)  (  73->  73)  (  74->  74)  (  75->  75)
 (  76->  76)  (  77->  77)  (  78->  78)  (  79->  79)  (  80->  80)
 (  81->  81)  (  82->  82)  (  83->  83)  (  84->  84)  (  85->  85)
 (  86->  86)  (  87->  87)  (  88->  88)  (  89->  89)  (  90->  90)
 (  91->  91)

 KPOINTS: Automatic mesh

Automatic generation of k-mesh.
Space group operators:
 irot       det(A)        alpha          n_x          n_y          n_z        tau_x        tau_y        tau_z
    1     1.000000     0.000000     1.000000     0.000000     0.000000     0.000000     0.000000     0.000000

 Subroutine IBZKPT returns following result:

 Found      4 irreducible k-points:

 Following reciprocal coordinates:
            Coordinates               Weight
  0.000000  0.000000  0.000000      1.000000
  0.500000 -0.000000  0.000000      1.000000
  0.000000  0.333333  0.000000      2.000000
  0.500000  0.333333  0.000000      2.000000

 Following cartesian coordinates:
            Coordinates               Weight
  0.000000  0.000000  0.000000      1.000000
  0.107705 -0.000000 -0.000068      1.000000
  0.000000  0.113457  0.000001      2.000000
  0.107705  0.113457 -0.000067      2.000000

 I would recommend the setting:
   dimension x,y,z NGX =    23 NGY =   14 NGZ =  336
 SYSTEM =  unknown system
 POSCAR =  (Li2 Mn15 O30)2  (P1) ~ CONTCAR (VASP)

 Startparameter for this run:
   NWRITE =      1    write-flag & timer
   PREC   = normal    normal or accurate (medium, high low for compatibility)
   ISTART =      0    job   : 0-new  1-cont  2-samecut
   ICHARG =      2    charge: 1-file 2-atom 10-const
   ISPIN  =      2    spin polarized calculation?
   LNONCOLLINEAR =      F non collinear calculations
   LSORBIT =      F    spin-orbit coupling
   INIWAV =      1    electr: 0-lowe 1-rand  2-diag
   LASPH  =      F    aspherical Exc in radial PAW
   METAGGA=      F    non-selfconsistent MetaGGA calc.

 Electronic Relaxation 1
   ENCUT  =  400.0 eV  29.40 Ry    5.42 a.u.   7.57  4.79112.15*2*pi/ulx,y,z
   ENINI  =  400.0     initial cutoff
   ENAUG  =  500.7 eV  augmentation charge cutoff
   NELM   =     60;   NELMIN=  2; NELMDL= -5     # of ELM steps
   EDIFF  = 0.1E-03   stopping-criterion for ELM
   LREAL  =      F    real-space projection
   NLSPLINE    = F    spline interpolate recip. space projectors
   LCOMPAT=      F    compatible to vasp.4.4
   GGA_COMPAT  = T    GGA compatible to vasp.4.4-vasp.4.6
   LMAXPAW     = -100 max onsite density
   LMAXMIX     =    4 max onsite mixed and CHGCAR
   VOSKOWN=      1    Vosko Wilk Nusair interpolation
   ROPT   =    0.00000   0.00000   0.00000
 Ionic relaxation
   EDIFFG = 0.1E-02   stopping-criterion for IOM
   NSW    =    151    number of steps for IOM
   NBLOCK =      1;   KBLOCK =    151    inner block; outer block
   IBRION =      2    ionic relax: 0-MD 1-quasi-New 2-CG
   NFREE  =      1    steps in history (QN), initial steepest desc. (CG)
[...]

 FORCES acting on ions
    electron-ion (+dipol)            ewald-force                    non-local-force                 convergence-correction
   -.160E+02 0.387E-01 0.240E+03   0.162E+02 -.394E-01 -.239E+03   -.120E+00 0.341E-03 -.865E+00   -.136E-01 0.128E-04 0.617E-01
   -.179E+02 0.251E-01 0.127E+03   0.180E+02 -.253E-01 -.126E+03   -.910E-01 0.579E-03 -.896E+00   -.288E-02 -.224E-03 0.136E-01
   0.454E+01 0.452E-01 -.355E+03   -.460E+01 -.467E-01 0.354E+03   0.570E-01 0.141E-02 0.802E+00   -.984E-03 0.623E-04 -.765E-01
   -.117E+02 0.266E-01 0.957E+01   0.119E+02 -.265E-01 -.870E+01   -.121E+00 0.739E-03 -.918E+00   0.280E-02 -.448E-03 0.302E-01
   0.132E+02 0.355E-01 -.139E+03   -.131E+02 -.346E-01 0.138E+03   -.132E+00 0.900E-03 0.834E+00   0.403E-02 -.809E-03 -.412E-01
   -.825E+01 0.195E-01 -.170E+03   0.821E+01 -.185E-01 0.171E+03   0.503E-01 0.888E-03 -.934E+00   -.759E-02 -.873E-03 0.272E-01
   0.186E+02 0.196E-01 0.536E+02   -.186E+02 -.189E-01 -.545E+02   -.154E-01 0.435E-03 0.894E+00   -.323E-02 -.569E-03 0.664E-01
   -.152E+02 0.229E-01 -.391E+03   0.151E+02 -.229E-01 0.392E+03   0.149E+00 0.625E-03 -.865E+00   -.387E-02 -.411E-03 -.130E+00
   0.156E+02 0.285E-01 0.179E+03   -.157E+02 -.284E-01 -.180E+03   0.124E+00 0.375E-03 0.932E+00   0.788E-02 -.222E-03 -.149E-01
   0.164E+02 0.327E-01 0.294E+03   -.165E+02 -.332E-01 -.295E+03   0.901E-01 0.204E-03 0.967E+00   -.295E-02 0.615E-05 0.587E-01
   0.134E+02 0.279E-01 0.281E+03   -.135E+02 -.298E-01 -.281E+03   0.101E+00 0.717E-03 -.776E+00   0.586E-02 0.485E-03 0.218E-01
   0.115E+02 0.372E-01 0.186E+03   -.116E+02 -.382E-01 -.186E+03   0.983E-01 0.947E-03 -.893E+00   0.230E-01 -.141E-03 0.891E-01
   0.113E+02 0.254E-01 0.732E+02   -.115E+02 -.256E-01 -.723E+02   0.149E+00 0.807E-03 -.893E+00   -.180E-02 -.321E-03 -.201E-01
   -.850E+01 0.357E-01 -.252E+03   0.844E+01 -.359E-01 0.251E+03   0.890E-01 0.166E-02 0.844E+00   -.222E-01 -.935E-03 -.134E+00
   0.635E+01 0.216E-01 -.688E+02   -.643E+01 -.207E-01 0.697E+02   0.689E-01 0.521E-03 -.944E+00   0.959E-02 -.680E-03 0.531E-01
   -.156E+02 0.248E-01 -.336E+02   0.155E+02 -.240E-01 0.327E+02   0.113E+00 0.912E-03 0.860E+00   -.669E-02 -.835E-03 0.238E-01
   0.102E+02 0.268E-01 -.281E+03   -.101E+02 -.259E-01 0.282E+03   -.106E+00 0.402E-03 -.919E+00   0.550E-02 -.508E-03 -.415E-01
   -.149E+02 0.207E-01 0.121E+03   0.150E+02 -.204E-01 -.122E+03   -.815E-01 0.409E-03 0.902E+00   -.729E-02 -.479E-03 0.624E-01
   -.109E+02 0.312E-01 0.235E+03   0.110E+02 -.307E-01 -.236E+03   -.115E+00 -.439E-03 0.965E+00   -.201E-01 0.832E-06 -.337E-01
   -.137E+02 0.363E-01 0.341E+03   0.138E+02 -.368E-01 -.342E+03   -.129E+00 -.219E-03 0.943E+00   0.205E-02 0.151E-03 0.718E-01
   0.384E+00 0.167E-01 0.275E+03   -.395E+00 -.183E-01 -.275E+03   -.247E-01 -.161E-03 0.142E+00   0.197E-01 0.790E-03 0.537E-01
   0.186E+01 0.891E-02 0.639E+02   -.185E+01 -.104E-01 -.642E+02   -.127E-01 -.650E-03 0.255E+00   -.955E-03 0.862E-03 0.323E-01
   0.782E-01 0.529E-01 -.149E+02   -.869E-01 -.506E-01 0.149E+02   0.684E-02 -.483E-02 -.584E-02   0.347E-02 0.994E-03 0.228E-01
   -.217E+01 0.891E-02 -.841E+02   0.214E+01 -.110E-01 0.844E+02   -.768E-02 -.820E-03 -.280E+00   0.325E-01 0.146E-02 -.190E-01
   -.162E+01 0.233E-01 -.277E+03   0.161E+01 -.248E-01 0.277E+03   0.117E-01 0.635E-04 -.882E-01   -.200E-02 0.629E-03 -.945E-01
   -.614E+00 0.187E-01 0.168E+03   0.611E+00 -.201E-01 -.168E+03   0.136E-01 -.624E-03 0.399E-01   -.715E-02 0.879E-03 0.671E-01
   -.187E+01 0.220E-01 -.373E+01   0.199E+01 -.246E-01 0.218E+01   -.126E+00 0.555E-03 0.151E+01   -.127E-02 0.738E-03 0.394E-01
   0.182E+01 -.690E-02 -.222E+02   -.195E+01 0.120E-02 0.237E+02   0.139E+00 0.332E-02 -.153E+01   -.516E-02 0.979E-03 -.846E-02
   0.196E+01 0.121E-01 -.180E+03   -.193E+01 -.138E-01 0.180E+03   -.113E-01 -.274E-04 -.653E-01   -.114E-01 0.804E-03 -.778E-01
   0.538E+01 0.182E-01 -.370E+03   -.534E+01 -.198E-01 0.370E+03   -.562E-01 0.140E-02 -.139E+00   0.122E-01 0.539E-04 -.872E-01
   0.222E+02 -.986E-01 0.299E+03   -.235E+02 0.150E+00 -.308E+03   0.120E+01 -.513E-01 0.882E+01   0.242E-01 -.154E-03 0.606E-01
   0.234E+02 -.859E-01 0.204E+03   -.245E+02 0.128E+00 -.212E+03   0.110E+01 -.422E-01 0.878E+01   0.278E-02 0.845E-04 -.737E-02
   -.462E+01 -.119E+00 -.387E+03   0.403E+01 0.172E+00 0.397E+03   0.573E+00 -.528E-01 -.102E+02   0.740E-03 0.171E-05 -.550E-01
   0.231E+02 -.556E-01 0.104E+03   -.243E+02 0.824E-01 -.113E+03   0.117E+01 -.266E-01 0.852E+01   0.104E-01 0.157E-03 0.413E-01
   -.400E+02 -.901E-01 -.216E+03   0.465E+02 0.130E+00 0.219E+03   -.646E+01 -.400E-01 -.270E+01   -.176E-01 0.507E-03 -.467E-01
   0.354E+02 0.118E-01 -.482E+02   -.404E+02 -.238E-01 0.442E+02   0.492E+01 0.124E-01 0.396E+01   0.569E-02 0.429E-03 0.127E-01
   -.308E+02 -.912E-03 -.487E+02   0.337E+02 -.573E-02 0.551E+02   -.293E+01 0.694E-02 -.645E+01   -.122E-02 0.387E-03 0.409E-01
   0.385E+02 0.907E-01 -.241E+03   -.436E+02 -.142E+00 0.238E+03   0.521E+01 0.519E-01 0.311E+01   -.204E-01 0.197E-03 -.120E+00
   -.219E+02 0.516E-01 0.586E+02   0.222E+02 -.820E-01 -.493E+02   -.286E+00 0.305E-01 -.927E+01   -.132E-01 0.186E-03 -.203E-01
   -.233E+02 0.764E-01 0.159E+03   0.238E+02 -.117E+00 -.151E+03   -.584E+00 0.408E-01 -.856E+01   0.165E-01 0.111E-04 0.762E-01
   -.330E+02 0.597E-01 0.237E+03   0.326E+02 -.907E-01 -.228E+03   0.450E+00 0.305E-01 -.848E+01   -.158E-01 -.119E-03 0.151E-01
   -.134E+01 -.680E-01 0.318E+03   -.827E+00 0.101E+00 -.330E+03   0.215E+01 -.336E-01 0.119E+02   0.701E-02 -.323E-03 0.274E-01
   -.226E+02 -.936E-01 0.256E+03   0.239E+02 0.143E+00 -.264E+03   -.130E+01 -.492E-01 0.862E+01   -.242E-01 -.431E-04 0.707E-01
   -.201E+02 -.709E-01 0.158E+03   0.204E+02 0.107E+00 -.168E+03   -.313E+00 -.365E-01 0.945E+01   0.120E-01 0.132E-03 -.181E-01
   0.389E+02 -.126E+00 -.314E+03   -.452E+02 0.184E+00 0.317E+03   0.627E+01 -.581E-01 -.307E+01   0.335E-01 0.191E-03 -.116E+00
   -.273E+02 -.326E-01 0.386E+02   0.300E+02 0.437E-01 -.454E+02   -.267E+01 -.109E-01 0.671E+01   -.545E-02 0.273E-03 0.433E-01
   0.373E+02 -.421E-01 -.125E+03   -.426E+02 0.576E-01 0.129E+03   0.526E+01 -.151E-01 -.387E+01   0.343E-02 0.490E-03 0.131E-01
   -.385E+02 0.562E-01 -.145E+03   0.442E+02 -.919E-01 0.142E+03   -.573E+01 0.361E-01 0.268E+01   0.583E-02 0.491E-03 -.470E-01
   0.237E+02 0.295E-01 0.873E+01   -.247E+02 -.508E-01 -.287E+00   0.103E+01 0.215E-01 -.847E+01   -.519E-02 0.252E-03 0.333E-01
   -.400E+02 0.969E-01 -.315E+03   0.425E+02 -.150E+00 0.310E+03   -.247E+01 0.533E-01 0.566E+01   -.118E-01 0.154E-03 -.520E-01
   0.203E+02 0.613E-01 0.106E+03   -.206E+02 -.979E-01 -.967E+02   0.351E+00 0.364E-01 -.898E+01   0.123E-03 0.134E-03 -.266E-04
   0.196E+02 0.762E-01 0.201E+03   -.194E+02 -.120E+00 -.192E+03   -.154E+00 0.431E-01 -.904E+01   -.148E-01 -.117E-03 0.626E-01
   -.183E+03 0.598E-01 0.235E+03   0.217E+03 -.845E-01 -.229E+03   -.340E+02 0.242E-01 -.605E+01   -.137E-01 -.817E-04 0.259E-01
   -.184E+03 0.567E-01 0.148E+03   0.218E+03 -.838E-01 -.143E+03   -.342E+02 0.271E-01 -.543E+01   -.283E-02 0.640E-04 0.111E-01
   -.184E+03 0.363E-01 0.499E+02   0.218E+03 -.535E-01 -.440E+02   -.340E+02 0.173E-01 -.585E+01   -.155E-01 0.193E-03 0.209E-01
   0.189E+03 0.473E-01 -.201E+03   -.223E+03 -.777E-01 0.198E+03   0.341E+02 0.309E-01 0.381E+01   0.219E-02 0.359E-03 -.495E-01
   -.188E+03 -.241E-01 -.741E+02   0.222E+03 0.273E-01 0.787E+02   -.340E+02 -.274E-02 -.468E+01   -.355E-02 0.396E-03 0.222E-01
   0.187E+03 -.107E-01 -.144E+02   -.221E+03 0.832E-02 0.971E+01   0.342E+02 0.277E-02 0.463E+01   0.505E-02 0.323E-03 0.179E-01
   -.188E+03 -.944E-01 -.257E+03   0.222E+03 0.129E+00 0.261E+03   -.340E+02 -.345E-01 -.416E+01   0.485E-02 0.292E-03 -.460E-01
   0.183E+03 -.596E-01 0.117E+03   -.217E+03 0.798E-01 -.123E+03   0.340E+02 -.201E-01 0.591E+01   0.139E-01 0.106E-03 0.910E-02
[...]
   0.833E+01 0.250E-01 -.229E+02   -.315E+01 -.392E-01 0.356E+02   -.519E+01 0.134E-01 -.127E+02   0.328E-02 -.397E-03 0.256E-01
   0.628E+01 -.423E-01 -.615E+02   -.249E+01 0.711E-01 0.767E+02   -.379E+01 -.296E-01 -.152E+02   -.217E-02 -.474E-03 0.191E-01
   0.135E+02 -.788E-01 -.144E+03   -.114E+02 0.121E+00 0.156E+03   -.213E+01 -.433E-01 -.115E+02   -.584E-02 -.284E-03 -.366E-01
   0.141E+02 -.104E+00 -.310E+03   -.114E+02 0.151E+00 0.322E+03   -.265E+01 -.474E-01 -.118E+02   -.285E-02 -.164E-03 -.656E-01
   -.131E+02 -.351E-01 0.129E+03   0.106E+02 0.548E-01 -.141E+03   0.245E+01 -.204E-01 0.116E+02   -.155E-03 -.416E-03 0.408E-01
   -.534E+01 0.562E-03 0.353E+02   0.117E+01 0.789E-02 -.503E+02   0.418E+01 -.923E-02 0.150E+02   -.651E-02 -.411E-03 0.465E-01
   -.873E+01 0.637E-01 0.276E+01   0.355E+01 -.103E+00 -.154E+02   0.517E+01 0.381E-01 0.126E+02   0.199E-01 -.256E-03 -.152E-01
   -.140E+02 0.846E-01 -.165E+03   0.103E+02 -.117E+00 0.154E+03   0.367E+01 0.318E-01 0.117E+02   0.337E-02 -.928E-04 -.654E-01
   0.122E+02 -.455E-01 0.222E+03   -.863E+01 0.690E-01 -.234E+03   -.364E+01 -.242E-01 0.125E+02   0.249E-02 -.402E-03 0.526E-01
   0.172E+02 -.334E-01 0.457E+02   -.170E+02 0.576E-01 -.569E+02   -.253E+00 -.249E-01 0.111E+02   -.611E-02 -.543E-03 0.274E-01
   0.239E+02 0.560E-01 0.154E+02   -.275E+02 -.729E-01 -.205E+02   0.357E+01 0.161E-01 0.503E+01   0.165E-02 -.478E-03 0.188E-01
   0.127E+02 0.733E-01 -.802E+02   -.829E+01 -.107E+00 0.684E+02   -.441E+01 0.324E-01 0.119E+02   0.223E-01 -.295E-03 -.212E-01
   0.171E+02 0.887E-01 -.250E+03   -.143E+02 -.128E+00 0.238E+03   -.286E+01 0.389E-01 0.112E+02   0.971E-02 -.320E-04 -.590E-01
   0.181E-01 0.501E-01 -.215E+01   -.927E-02 -.423E-01 0.216E+01   -.128E-01 -.914E-02 -.669E-02   -.697E-04 -.433E-06 0.491E-02
   -.953E+00 0.175E+00 0.181E+01   0.777E-12 0.309E-12 -.255E-11   0.942E+00 -.193E+00 -.185E+01   0.121E-01 0.198E-02 0.307E-01

 POSITION                                       TOTAL-FORCE (eV/Angst)
      0.34063      0.75929     41.58701         0.006219     -0.000147     -0.004982
      0.29383      0.74916     32.29014         0.005413      0.000312      0.003938
      4.49253      2.22353      1.62916        -0.004239      0.000173      0.029969
      0.26349      0.74214     22.98989         0.002938      0.000623     -0.010201
      4.53150      2.21152     11.06495        -0.004238      0.001160     -0.008763
      0.17891      0.74168     13.61262         0.003629      0.001199      0.006298
      4.47444      2.20970     20.47169        -0.007735      0.000734      0.001109
      0.17106      0.75174      4.17699         0.020255      0.000368     -0.008946
      4.44583      2.21593     29.78615        -0.002547      0.000344     -0.011869
      4.50248      2.22557     39.08412        -0.007953     -0.000110      0.001632
      2.19701      0.76467     46.22781        -0.010966     -0.000469     -0.027266
      2.18221      0.75413     36.94760        -0.006722     -0.000068      0.031954
      2.12477      0.74525     27.65026        -0.003595      0.000455     -0.019148
      2.48603      2.21662      6.34111         0.003239      0.000761     -0.018199
      2.15066      0.74060     18.31874        -0.000419      0.000926      0.000051
      2.49446      2.20929     15.77587         0.008608      0.001097     -0.013344
      2.20990      0.74551      8.89807        -0.005829      0.000960      0.016943
      2.58276      2.21224     25.13159         0.008534      0.000433      0.012031
      2.62014      2.22023     34.42841         0.003723      0.000237     -0.031214
      2.66694      2.23085     43.71562         0.008107     -0.000345     -0.003759
      4.50930      2.23541     48.36132        -0.016308     -0.000834     -0.016596
      4.49939      2.23800     52.64379        -0.004526     -0.001093     -0.000239
      4.54141      2.23932     57.19433         0.001575     -0.001350      0.007838
      4.57889      2.23500     61.75774        -0.011778     -0.001244     -0.003713
      4.56090      2.22985     66.06522         0.003824     -0.000546      0.011834
      2.18824      0.76844     50.49774         0.003653     -0.000973     -0.011422
      2.17295      0.77031     54.77260        -0.001983     -0.001155      0.002240
      2.26283      0.76865     59.61509         0.006231     -0.001217      0.005383
      2.24700      0.76410     63.90637         0.001768     -0.000764      0.012194
      2.23001      0.75809     68.22268        -0.009650      0.000061      0.025057
      1.84215      0.76161     42.80992         0.010128     -0.000215     -0.028170
      1.79341      0.75109     33.51777         0.019113      0.000147      0.004626
      2.98649      2.22648      0.40776        -0.013662     -0.000002      0.018339
      1.75467      0.74331     24.22489        -0.001741      0.000530     -0.014745
      3.14253      2.21344      9.70666        -0.016262      0.001030      0.004444
      1.58780      0.74084     14.94109         0.006314      0.001063     -0.017448
      3.01856      2.20911     19.19302        -0.011302      0.000869     -0.002770
      1.56427      0.74866      5.51534         0.031937      0.000694      0.007291
      2.93841      2.21409     28.57219         0.008488      0.000368      0.015158
      3.00916      2.22311     37.86097        -0.021787      0.000088     -0.008964
      3.01160      2.23351     47.14033        -0.005064     -0.000484      0.002702
      0.64691      0.76642     47.38867        -0.017205     -0.000700     -0.007795
      0.68756      0.75636     38.17533        -0.003246      0.000053     -0.024787
      0.61625      0.74689     28.85914        -0.008835      0.000369      0.001642
      3.88569      2.21940      4.99354         0.007661      0.000726      0.032047
      0.69290      0.74095     19.58990         0.002555      0.000758     -0.019987
      3.90675      2.20991     14.44738         0.015635      0.001134     -0.000641
      0.81925      0.74337     10.24381        -0.009364      0.001073     -0.015862
      4.07480      2.21084     23.90226         0.004406      0.000573      0.002918
      0.71884      0.75564      0.75317        -0.006814      0.000151     -0.005958
      4.11863      2.21806     33.21276         0.000293      0.000256      0.013802
      4.16739      2.22826     42.51318         0.014859     -0.000206      0.001704
      3.43749      0.76262     44.74439         0.003609     -0.000324     -0.007006
      3.40230      0.75201     35.44850         0.010877      0.000149      0.001694
      3.35903      0.74392     26.15595         0.005317      0.000466     -0.000125
      1.36518      2.21434      7.93011        -0.008754      0.000977     -0.002190
      3.31739      0.74062     16.76141         0.010329      0.001024      0.001367
      1.33461      2.20905     17.33093        -0.008777      0.000929     -0.008077
      3.32948      0.74743      7.30075         0.020114      0.000796      0.020197
      1.35103      2.21335     26.62666        -0.004026      0.000405     -0.001181
[...]
      3.74981      0.76710     49.34215        -0.011096     -0.000783     -0.003513
      3.75034      0.76961     53.65436        -0.006630     -0.001007      0.004252
      3.76193      0.77031     58.20604        -0.001677     -0.001109      0.011565
      3.79806      0.76593     62.71756        -0.002104     -0.000883      0.007682
      3.78290      0.76062     67.03044         0.000177     -0.000330      0.013594
      0.63620      0.76921     51.67621        -0.003448     -0.000981      0.003981
      0.67836      0.77062     56.17310         0.002986     -0.001012      0.006002
      0.68706      0.76687     60.73767         0.010251     -0.000991      0.009675
      0.69467      0.76175     65.08072         0.000138     -0.000506      0.008832
      1.43145      2.23662     49.52016        -0.013934     -0.000909     -0.001789
      1.39502      2.23852     53.84804        -0.006132     -0.001114      0.001712
      1.51052      2.23792     58.47461        -0.003840     -0.001146      0.001008
      1.48832      2.23300     62.91313         0.003653     -0.000974      0.013516
      1.45064      2.22707     67.25962         0.002174     -0.000147      0.005103
      2.21970      0.77254     57.19230        -0.004001     -0.001133      0.007059
    total drift:                                0.000852     -0.016578     -0.007771

  FREE ENERGIE OF THE ION-ELECTRON SYSTEM (eV)
  free  energy   TOTEN  =      -640.71920431 eV

  energy  without entropy=     -640.80072860  energy(sigma->0) =     -640.74637908

 d Force = 0.2383482E-03[ 0.182E-04, 0.458E-03]  d Energy = 0.4395516E-03-0.201E-03
 d Force =-0.1599305E+01[-0.160E+01,-0.160E+01]  d Ewald  =-0.4342841E+01 0.274E+01

 reached required accuracy - stopping structural energy minimisation