 vasp.5.3.3 18Dez12 (build May 12 2016 12:04:25) complex

 executed on             LinuxIFC date 2019.05.18  11:38:11

 INCAR:
 POTCAR:    PAW_PBE Mn 06Sep2000
 POTCAR:    PAW_PBE O 08Apr2002
 POTCAR:    PAW_PBE Mn 06Sep2000

 POTCAR:    PAW_PBE O 08Apr2002

  PAW_PBE Mn 06Sep2000                  :
  PAW_PBE O 08Apr2002                   :

 POSCAR: (Mn O2)4  (Pnma) ~  (Pearson #541374)_1
  positions in direct lattice
  velocities in cartesian coordinates
 exchange correlation table for  LEXCH =       14
   RHO(1)=    0.500       N(1)  =     2000
   RHO(2)=  100.500       N(2)  =     4000

 ion  position               nearest neighbor table
   1  0.136  0.250  0.034-   5 1.85   8 1.88   8 1.88  12 1.89  12 1.89  10 1.91   3 2.88   3 2.88

   2  0.636  0.250  0.466-   6 1.85   7 1.88   7 1.88  11 1.89  11 1.89   9 1.91   4 2.88   4 2.88

[...]

   5  0.277  0.250  0.326-   1 1.85   4 1.88   4 1.88
   6  0.777  0.250  0.174-   2 1.85   3 1.88   3 1.88
   7  0.723  0.750  0.674-   3 1.85   2 1.88   2 1.88
   8  0.223  0.750  0.826-   4 1.85   1 1.88   1 1.88
   9  0.467  0.250  0.713-   4 1.89   4 1.89   2 1.91
  10  0.967  0.250  0.787-   3 1.89   3 1.89   1 1.91
  11  0.533  0.750  0.287-   2 1.89   2 1.89   4 1.91
  12  0.033  0.750  0.213-   1 1.89   1 1.89   3 1.91

  LATTYP: Found a simple orthorhombic cell.
 ALAT       =     2.8367965838
 B/A-ratio  =     1.6012529148
 C/A-ratio  =     3.2295553795

  Lattice vectors:

 A1 = (   0.0000000000,   2.8367965838,   0.0000000000)
 A2 = (   0.0000000000,   0.0000000000,  -4.5424287986)
 A3 = (  -9.1615916680,   0.0000000000,   0.0000000000)

Analysis of symmetry for initial positions (statically):
 Subroutine PRICEL returns:
 Original cell was already a primitive cell.

 Routine SETGRP: Setting up the symmetry group for a
 simple orthorhombic supercell.

 Subroutine GETGRP returns: Found  8 space group operations
 (whereof  2 operations were pure point group operations)
 out of a pool of  8 trial point group operations.

The static configuration has the point symmetry S_2 .
 The point group associated with its full space group is D_2h.

Analysis of symmetry for dynamics (positions and initial velocities):
 Subroutine PRICEL returns:
 Original cell was already a primitive cell.

 Routine SETGRP: Setting up the symmetry group for a
 simple orthorhombic supercell.

 Subroutine GETGRP returns: Found  8 space group operations
 (whereof  2 operations were pure point group operations)
 out of a pool of  8 trial point group operations.

The dynamic configuration has the point symmetry S_2 .
 The point group associated with its full space group is D_2h.

Analysis of magnetic symmetry:

 Subroutine MAGSYM returns: Found  8 space group operations
 (whereof  2 operations were pure point group operations)
 out of a pool of  8 trial space group operations
 (whereof  2 operations were pure point group operations)
 and found also     1 'primitive' translations

The magnetic configuration has the point symmetry S_2 .
 The point group associated with its full space group is D_2h.

 irot  :   1
 isymop:   1   0   0
           0   1   0
           0   0   1

 gtrans:     0.0000000     0.0000000     0.0000000

 ptrans:     0.0000000     0.0000000     0.0000000
 rotmap:
 (   1->   1)  (   2->   2)  (   3->   3)  (   4->   4)  (   5->   5)
 (   6->   6)  (   7->   7)  (   8->   8)  (   9->   9)  (  10->  10)
 (  11->  11)  (  12->  12)

[...]

 irot  :   8
 isymop:   1   0   0
           0  -1   0
           0   0   1

 gtrans:     0.0000000     0.5000000     0.0000000

 ptrans:     0.0000000     0.0000000     0.0000000
 rotmap:
 (   1->   1)  (   2->   2)  (   3->   3)  (   4->   4)  (   5->   5)
 (   6->   6)  (   7->   7)  (   8->   8)  (   9->   9)  (  10->  10)
 (  11->  11)  (  12->  12)

 KPOINTS: Automatic mesh

Automatic generation of k-mesh.
Space group operators:
 irot       det(A)        alpha          n_x          n_y          n_z        tau_x        tau_y        tau_z
    1     1.000000     0.000001     1.000000     0.000000     0.000000     0.000000     0.000000     0.000000
    2    -1.000000     0.000001     1.000000     0.000000     0.000000     0.000000     0.000000     0.000000
    3     1.000000   180.000000     1.000000     0.000000     0.000000    -0.500000     0.500000    -0.500000
    4    -1.000000   180.000000     1.000000     0.000000     0.000000    -0.500000     0.500000    -0.500000
    5     1.000000   179.999999     0.000000     0.000000     1.000000    -0.500000     0.000000    -0.500000
    6    -1.000000   179.999999     0.000000     0.000000     1.000000    -0.500000     0.000000    -0.500000
    7     1.000000   180.000000     0.000000     1.000000     0.000000    -0.000000     0.500000    -0.000000
    8    -1.000000   180.000000     0.000000     1.000000     0.000000     0.000000     0.500000     0.000000

 Subroutine IBZKPT returns following result:

 Found     40 irreducible k-points:

 Following reciprocal coordinates:
            Coordinates               Weight
  0.000000  0.000000  0.000000      1.000000
  0.333333  0.000000  0.000000      2.000000
  0.000000  0.111111  0.000000      2.000000
  0.333333  0.111111  0.000000      4.000000
  0.000000  0.222222  0.000000      2.000000
  0.333333  0.222222  0.000000      4.000000
  0.000000  0.333333  0.000000      2.000000
  0.333333  0.333333  0.000000      4.000000
  0.000000  0.444444  0.000000      2.000000
  0.333333  0.444444  0.000000      4.000000
  0.000000  0.000000  0.166667      2.000000
  0.333333  0.000000  0.166667      4.000000
  0.000000  0.111111  0.166667      4.000000
  0.333333  0.111111  0.166667      8.000000
  0.000000  0.222222  0.166667      4.000000
  0.333333  0.222222  0.166667      8.000000
  0.000000  0.333333  0.166667      4.000000
  0.333333  0.333333  0.166667      8.000000
  0.000000  0.444444  0.166667      4.000000
  0.333333  0.444444  0.166667      8.000000
  0.000000  0.000000  0.333333      2.000000
  0.333333  0.000000  0.333333      4.000000
  0.000000  0.111111  0.333333      4.000000
  0.333333  0.111111  0.333333      8.000000
  0.000000  0.222222  0.333333      4.000000
  0.333333  0.222222  0.333333      8.000000
  0.000000  0.333333  0.333333      4.000000
  0.333333  0.333333  0.333333      8.000000
  0.000000  0.444444  0.333333      4.000000
  0.333333  0.444444  0.333333      8.000000
  0.000000  0.000000  0.500000      1.000000
  0.333333  0.000000  0.500000      2.000000
  0.000000  0.111111  0.500000      2.000000
  0.333333  0.111111  0.500000      4.000000
  0.000000  0.222222  0.500000      2.000000
  0.333333  0.222222  0.500000      4.000000
  0.000000  0.333333  0.500000      2.000000
  0.333333  0.333333  0.500000      4.000000
  0.000000  0.444444  0.500000      2.000000
  0.333333  0.444444  0.500000      4.000000

 Following cartesian coordinates:
            Coordinates               Weight
  0.000000  0.000000  0.000000      1.000000
  0.036384  0.000000  0.000000      2.000000
  0.000000  0.039168  0.000000      2.000000
  0.036384  0.039168  0.000000      4.000000
  0.000000  0.078336  0.000000      2.000000
  0.036384  0.078336  0.000000      4.000000
  0.000000  0.117503  0.000000      2.000000
  0.036384  0.117503  0.000000      4.000000
  0.000000  0.156671  0.000000      2.000000
  0.036384  0.156671  0.000000      4.000000
  0.000000  0.000000  0.036691      2.000000
  0.036384  0.000000  0.036691      4.000000
  0.000000  0.039168  0.036691      4.000000
  0.036384  0.039168  0.036691      8.000000
  0.000000  0.078336  0.036691      4.000000
  0.036384  0.078336  0.036691      8.000000
  0.000000  0.117503  0.036691      4.000000
  0.036384  0.117503  0.036691      8.000000
  0.000000  0.156671  0.036691      4.000000
  0.036384  0.156671  0.036691      8.000000
  0.000000  0.000000  0.073382      2.000000
  0.036384  0.000000  0.073382      4.000000
  0.000000  0.039168  0.073382      4.000000
  0.036384  0.039168  0.073382      8.000000
  0.000000  0.078336  0.073382      4.000000
  0.036384  0.078336  0.073382      8.000000
  0.000000  0.117503  0.073382      4.000000
  0.036384  0.117503  0.073382      8.000000
  0.000000  0.156671  0.073382      4.000000
  0.036384  0.156671  0.073382      8.000000
  0.000000  0.000000  0.110073      1.000000
  0.036384  0.000000  0.110073      2.000000
  0.000000  0.039168  0.110073      2.000000
  0.036384  0.039168  0.110073      4.000000
  0.000000  0.078336  0.110073      2.000000
  0.036384  0.078336  0.110073      4.000000
  0.000000  0.117503  0.110073      2.000000
  0.036384  0.117503  0.110073      4.000000
  0.000000  0.156671  0.110073      2.000000
  0.036384  0.156671  0.110073      4.000000

 TETIRR: Found    477 inequivalent tetrahedra from      972

 I would recommend the setting:
   dimension x,y,z NGX =    51 NGY =   16 NGZ =   25
 SYSTEM =  (Mn O2)4  (Pnma) ~  (Pearson
 POSCAR =  (Mn O2)4  (Pnma) ~  (Pearson #541374)_1

 Startparameter for this run:
   NWRITE =      1    write-flag & timer
   PREC   = normal    normal or accurate (medium, high low for compatibility)
   ISTART =      0    job   : 0-new  1-cont  2-samecut
   ICHARG =      2    charge: 1-file 2-atom 10-const
   ISPIN  =      2    spin polarized calculation?
   LNONCOLLINEAR =      F non collinear calculations
   LSORBIT =      F    spin-orbit coupling
   INIWAV =      1    electr: 0-lowe 1-rand  2-diag
   LASPH  =      F    aspherical Exc in radial PAW
   METAGGA=      F    non-selfconsistent MetaGGA calc.

 Electronic Relaxation 1
   ENCUT  =  520.0 eV  38.22 Ry    6.18 a.u.  17.03  5.27  8.45*2*pi/ulx,y,z
   ENINI  =  520.0     initial cutoff
   ENAUG  =  605.4 eV  augmentation charge cutoff
   NELM   =     60;   NELMIN=  2; NELMDL= -5     # of ELM steps
   EDIFF  = 0.1E-03   stopping-criterion for ELM
   LREAL  =      F    real-space projection
   NLSPLINE    = F    spline interpolate recip. space projectors
   LCOMPAT=      F    compatible to vasp.4.4
   GGA_COMPAT  = T    GGA compatible to vasp.4.4-vasp.4.6
   LMAXPAW     = -100 max onsite density
   LMAXMIX     =    2 max onsite mixed and CHGCAR
   VOSKOWN=      1    Vosko Wilk Nusair interpolation
   ROPT   =    0.00000   0.00000
 Ionic relaxation
   EDIFFG = 0.1E-02   stopping-criterion for IOM
   NSW    =      0    number of steps for IOM
   NBLOCK =      1;   KBLOCK =      1    inner block; outer block
   IBRION =     -1    ionic relax: 0-MD 1-quasi-New 2-CG
   NFREE  =      0    steps in history (QN), initial steepest desc. (CG)
   ISIF   =      2    stress and relaxation
   IWAVPR =     10    prediction:  0-non 1-charg 2-wave 3-comb
   ISYM   =      2    0-nonsym 1-usesym 2-fastsym
   LCORR  =      T    Harris-Foulkes like correction to forces

   POTIM  = 0.5000    time-step for ionic-motion
   TEIN   =    0.0    initial temperature
   TEBEG  =    0.0;   TEEND  =   0.0 temperature during run
   SMASS  =  -3.00    Nose mass-parameter (am)
   estimated Nose-frequenzy (Omega)   =  0.10E-29 period in steps =****** mass=  -0.192E-26a.u.
   SCALEE = 1.0000    scale energy and forces
   NPACO  =    256;   APACO  = 16.0  distance and # of slots for P.C.
   PSTRESS=    0.0 pullay stress

  Mass of Ions in am
[...]

 position of ions in cartesian coordinates  (Angst):
   1.24415936  0.70919915  0.15277056
   5.82495519  0.70919915  2.11844384
   7.91743231  2.12759744  4.38965824
   3.33663648  2.12759744  2.42398496
   2.54043466  0.70919915  1.47862727
   7.12123049  0.70919915  0.79258712
   6.62115701  2.12759744  3.06380152
   2.04036118  2.12759744  3.74984167
   4.28044090  0.70919915  3.23656997
   8.86123674  0.70919915  3.57707323
   4.88115076  2.12759744  1.30585883
   0.30035493  2.12759744  0.96535557

 k-point  1 :   0.0000 0.0000 0.0000  plane waves:    3185
 k-point  2 :   0.3333 0.0000 0.0000  plane waves:    3174
 k-point  3 :   0.0000 0.1111 0.0000  plane waves:    3177
 k-point  4 :   0.3333 0.1111 0.0000  plane waves:    3190
 k-point  5 :   0.0000 0.2222 0.0000  plane waves:    3167
 k-point  6 :   0.3333 0.2222 0.0000  plane waves:    3183
 k-point  7 :   0.0000 0.3333 0.0000  plane waves:    3174
 k-point  8 :   0.3333 0.3333 0.0000  plane waves:    3185
 k-point  9 :   0.0000 0.4444 0.0000  plane waves:    3190
 k-point 10 :   0.3333 0.4444 0.0000  plane waves:    3203
 k-point 11 :   0.0000 0.0000 0.1667  plane waves:    3183
 k-point 12 :   0.3333 0.0000 0.1667  plane waves:    3188
 k-point 13 :   0.0000 0.1111 0.1667  plane waves:    3178
 k-point 14 :   0.3333 0.1111 0.1667  plane waves:    3181
 k-point 15 :   0.0000 0.2222 0.1667  plane waves:    3172
 k-point 16 :   0.3333 0.2222 0.1667  plane waves:    3182
 k-point 17 :   0.0000 0.3333 0.1667  plane waves:    3167
 k-point 18 :   0.3333 0.3333 0.1667  plane waves:    3182
 k-point 19 :   0.0000 0.4444 0.1667  plane waves:    3180
 k-point 20 :   0.3333 0.4444 0.1667  plane waves:    3195
 k-point 21 :   0.0000 0.0000 0.3333  plane waves:    3175
 k-point 22 :   0.3333 0.0000 0.3333  plane waves:    3195
 k-point 23 :   0.0000 0.1111 0.3333  plane waves:    3181
 k-point 24 :   0.3333 0.1111 0.3333  plane waves:    3179
 k-point 25 :   0.0000 0.2222 0.3333  plane waves:    3178
 k-point 26 :   0.3333 0.2222 0.3333  plane waves:    3173
 k-point 27 :   0.0000 0.3333 0.3333  plane waves:    3182
 k-point 28 :   0.3333 0.3333 0.3333  plane waves:    3172
 k-point 29 :   0.0000 0.4444 0.3333  plane waves:    3186
 k-point 30 :   0.3333 0.4444 0.3333  plane waves:    3170
 k-point 31 :   0.0000 0.0000 0.5000  plane waves:    3172
 k-point 32 :   0.3333 0.0000 0.5000  plane waves:    3192
 k-point 33 :   0.0000 0.1111 0.5000  plane waves:    3184
 k-point 34 :   0.3333 0.1111 0.5000  plane waves:    3180
 k-point 35 :   0.0000 0.2222 0.5000  plane waves:    3180
 k-point 36 :   0.3333 0.2222 0.5000  plane waves:    3172
 k-point 37 :   0.0000 0.3333 0.5000  plane waves:    3166
 k-point 38 :   0.3333 0.3333 0.5000  plane waves:    3168
 k-point 39 :   0.0000 0.4444 0.5000  plane waves:    3146
 k-point 40 :   0.3333 0.4444 0.5000  plane waves:    3156

 maximum and minimum number of plane-waves per node :       835      766

 maximum number of plane-waves:      3203
 maximum index in each direction:
   IXMAX=   17   IYMAX=    5   IZMAX=    8
   IXMIN=  -17   IYMIN=   -5   IZMIN=   -8

 WARNING: aliasing errors must be expected set NGX to  70 to avoid them
 WARNING: aliasing errors must be expected set NGY to  22 to avoid them
 WARNING: aliasing errors must be expected set NGZ to  34 to avoid them
 aliasing errors are usually negligible using standard VASP settings
 and one can safely disregard these warnings

 parallel 3D FFT for wavefunctions:
    minimum data exchange during FFTs selected (reduces bandwidth)
 parallel 3D FFT for charge:
    minimum data exchange during FFTs selected (reduces bandwidth)

 Broyden mixing: mesh for mixing (old mesh)
   NGX = 35   NGY = 11   NGZ = 17
  (NGX  =108   NGY  = 32   NGZ  = 56)
  gives a total of   6545 points

 initial charge density was supplied:
 charge density of overlapping atoms calculated
 number of electron      76.0000000 magnetization       0.0000000
 keeping initial charge density in first step

 Maximum index for augmentation-charges          435 (set IRDMAX)

 First call to EWALD:  gamma=   0.361
 Maximum number of real-space cells 2x 4x 3
 Maximum number of reciprocal cells 5x 2x 3

 FEWALD executed in parallel

----------------------------------------- Iteration    1(   1)  ---------------------------------------

 BZINTS: Fermi energy: 23.986095; 76.000000 electrons
         Band energy: 884.540567;  BLOECHL correction: -0.103729

 eigenvalue-minimisations  :  7680
 total energy-change (2. order) : 0.1072720E+04  (-0.3408980E+04)
 number of electron      76.0000000 magnetization       0.0000000
 augmentation part       76.0000000 magnetization       0.0000000

 Free energy of the ion-electron system (eV)
  alpha Z        PSCENC =       322.36023216
  Ewald energy   TEWEN  =     -4154.24390308
  -1/2 Hartree   DENC   =     -1323.18583370
  -exchange  EXHF       =         0.00000000
  -V(xc)+E(xc)   XCENC  =       186.40023475
  PAW double counting   =      4385.75833043    -4339.47960987
  entropy T*S    EENTRO =         0.00000000
  eigenvalues    EBANDS =       884.54056731
  atomic energy  EATOM  =      5110.57042958
  free energy    TOTEN  =      1072.72044760 eV

  energy without entropy =     1072.72044760  energy(sigma->0) =     1072.72044760

[...]

 BZINTS: Fermi energy:  9.600119; 76.000000 electrons
         Band energy: -66.500443;  BLOECHL correction: -0.100040

 eigenvalue-minimisations  :  7832
 total energy-change (2. order) :-0.9510410E+03  (-0.9042104E+03)
 number of electron      76.0000000 magnetization       0.0000000
 augmentation part       76.0000000 magnetization       0.0000000

[...]

 BZINTS: Fermi energy:  7.344868; 76.000000 electrons
         Band energy:-295.298482;  BLOECHL correction: -0.038243

[...]

 Broyden mixing:
  rms(total) = 0.57681E+01    rms(broyden)= 0.57678E+01
  rms(prec ) = 0.68529E+01
  weight for this iteration     100.00

[...]

 eigenvalues of (default mixing * dielectric matrix)
  average eigenvalue GAMMA=   0.2732
  0.2732

[...]

 eigenvalue-minimisations  : 13152
 total energy-change (2. order) :-0.2553963E-03  (-0.2833359E-03)
 number of electron      76.0000047 magnetization      -0.0000000
 augmentation part       17.3867888 magnetization      -0.0000000

[...]

 Broyden mixing:
  rms(total) = 0.12284E-01    rms(broyden)= 0.12284E-01
  rms(prec ) = 0.14934E-01
  weight for this iteration     100.00

 eigenvalues of (default mixing * dielectric matrix)
  average eigenvalue GAMMA=   1.0645
  2.2258  2.2258  1.0752  1.0752  0.3101  0.6669  0.6669  0.7196  0.6145

[...]

----------------------------------------- Iteration    1(  15)  ---------------------------------------

[...]

 eigenvalue-minimisations  :  7160
 total energy-change (2. order) : 0.1060739E-04  (-0.5857709E-04)
 number of electron      76.0000047 magnetization      -0.0000000
 augmentation part       17.3934621 magnetization      -0.0000000

 Free energy of the ion-electron system (eV)
  alpha Z        PSCENC =       322.36023216
  Ewald energy   TEWEN  =     -4154.24390308
  -1/2 Hartree   DENC   =     -1334.60146436
  -exchange  EXHF       =         0.00000000
  -V(xc)+E(xc)   XCENC  =       189.98267298
  PAW double counting   =      6644.58765433    -6605.11327775
  entropy T*S    EENTRO =         0.00000000
  eigenvalues    EBANDS =      -274.22522779
  atomic energy  EATOM  =      5110.57042958
  free energy    TOTEN  =      -100.68288392 eV

  energy without entropy =     -100.68288392  energy(sigma->0) =     -100.68288392

 average (electrostatic) potential at core
  the test charge radii are     1.0210  0.7215
  (the norm of the test charge is              1.0000)
       1 -47.3112       2 -47.3112       3 -47.3112       4 -47.3112       5 -72.1119
       6 -72.1119       7 -72.1119       8 -72.1119       9 -72.1151      10 -72.1151
      11 -72.1151      12 -72.1151

 E-fermi :   3.1699     XC(G=0): -11.6022     alpha+bet :-10.8039

 spin component 1

 k-point   1 :       0.0000    0.0000    0.0000
  band No.  band energies     occupation
      1     -16.7033      1.00000
      2     -16.0160      1.00000
      3     -15.8011      1.00000
      4     -14.9158      1.00000
      5     -14.6535      1.00000
      6     -14.6218      1.00000
      7     -14.4309      1.00000
      8     -14.4205      1.00000
      9      -4.2591      1.00000
     10      -3.6466      1.00000
     11      -3.3957      1.00000
     12      -3.2073      1.00000
     13      -2.5888      1.00000
     14      -2.5354      1.00000
     15      -2.5185      1.00000
     16      -2.4790      1.00000
     17      -2.1496      1.00000
     18      -1.9635      1.00000
     19      -1.7538      1.00000
     20      -1.4964      1.00000
     21      -1.0276      1.00000
     22      -0.4886      1.00000
     23      -0.4195      1.00000
     24      -0.1508      1.00000
     25      -0.1085      1.00000
     26       0.3444      1.00000
     27       0.5367      1.00000
     28       1.1089      1.00000
     29       1.3059      1.00000
     30       1.4123      1.00000
     31       1.4148      1.00000
     32       1.6707      1.00000
     33       1.6841      1.00000
     34       2.1734      1.00000
     35       2.1799      1.00000
     36       2.2658      1.00000
     37       2.3161      1.00000
     38       2.6432      1.00000
     39       3.6977      0.00000
     40       4.0180      0.00000
     41       4.0694      0.00000
     42       4.5150      0.00000
     43       4.7707      0.00000
     44       4.9757      0.00000
     45       5.1662      0.00000
     46       5.3799      0.00000
     47       5.7534      0.00000
     48       6.2867      0.00000

[...]

 spin component 2

[...]

 k-point  40 :       0.3333    0.4444    0.5000
  band No.  band energies     occupation
      1     -15.1158      1.00000
      2     -15.1128      1.00000
      3     -14.9179      1.00000
      4     -14.9006      1.00000
      5     -14.7983      1.00000
      6     -14.7966      1.00000
      7     -14.7377      1.00000
      8     -14.7242      1.00000
      9      -3.7214      1.00000
     10      -3.6057      1.00000
     11      -3.4986      1.00000
     12      -3.3554      1.00000
     13      -2.7519      1.00000
     14      -2.6690      1.00000
     15      -2.6672      1.00000
     16      -2.5833      1.00000
     17      -2.2942      1.00000
     18      -2.1019      1.00000
     19      -1.7528      1.00000
     20      -1.6968      1.00000
     21      -0.8104      1.00000
     22      -0.7910      1.00000
     23      -0.6680      1.00000
     24      -0.6532      1.00000
     25      -0.2659      1.00000
     26      -0.2466      1.00000
     27       0.0047      1.00000
     28       0.3224      1.00000
     29       0.9352      1.00000
     30       1.0135      1.00000
     31       1.1949      1.00000
     32       1.2211      1.00000
     33       1.5901      1.00000
     34       1.6208      1.00000
     35       2.0352      1.00000
     36       2.1671      1.00000
     37       2.3007      1.00000
     38       2.3852      1.00000
     39       4.2073      0.00000
     40       4.2571      0.00000
     41       4.4153      0.00000
     42       4.4974      0.00000
     43       4.5615      0.00000
     44       4.6984      0.00000
     45       5.0442      0.00000
     46       5.1557      0.00000
     47       5.4061      0.00000
     48       5.4351      0.00000

 soft charge-density along one line, spin component           1
         0         1         2         3         4         5         6         7         8         9
 total charge-density along one line

 soft charge-density along one line, spin component           2
         0         1         2         3         4         5         6         7         8         9
 total charge-density along one line

------------------------ aborting loop because EDIFF is reached ----------------------------------------

  FORCE on cell =-STRESS in cart. coord.  units (eV):
  Direction    XX          YY          ZZ          XY          YZ          ZX
  Alpha Z   322.36023   322.36023   322.36023
  Ewald   -1273.83629  -873.20488 -2007.20820     0.00000    -0.00000     0.00000
  Hartree   519.15842   726.58921    88.71167    -0.00000    -0.00000    -0.00000
  E(xc)    -369.35107  -369.45383  -369.09825     0.00000     0.00000     0.00000
  Local    -424.05824 -1011.66853   717.22615     0.00000     0.00000    -0.00000
  n-local  -262.42781  -257.86903  -266.54127     0.04771    -0.09360     0.00432
  augment   173.02691   169.58293   176.03351     0.00000     0.00000    -0.00000
  Kinetic  1315.26936  1293.66601  1338.38860    -0.11380    -0.85748     0.02447
  Fock        0.00000     0.00000     0.00000     0.00000     0.00000     0.00000
  Total       0.14151     0.00210    -0.12755     0.00000     0.00000     0.00000
  in kB       1.92044     0.02851    -1.73107     0.00000     0.00000     0.00000

 VOLUME and BASIS-vectors are now :
  energy-cutoff  :      520.00
  volume of cell :      118.06
      direct lattice vectors                 reciprocal lattice vectors
     9.161591668  0.000000000  0.000000000     0.109151339  0.000000000  0.000000000
     0.000000000  2.836796584  0.000000000     0.000000000  0.352510295  0.000000000
     0.000000000  0.000000000  4.542428799     0.000000000  0.000000000  0.220146544

  length of vectors
     9.161591668  2.836796584  4.542428799     0.109151339  0.352510295  0.220146544

 FORCES acting on ions
    electron-ion (+dipol)            ewald-force                    non-local-force                 convergence-correction
   -.460E+02 0.100E-12 -.734E+01   0.467E+02 0.112E-13 0.746E+01   -.644E+00 0.461E-17 -.131E+00   -.472E-01 0.262E-14 0.217E-02
   -.460E+02 0.705E-12 0.734E+01   0.467E+02 -.181E-13 -.746E+01   -.644E+00 -.889E-17 0.131E+00   -.472E-01 0.600E-14 -.217E-02
   0.460E+02 0.201E-11 0.734E+01   -.467E+02 -.211E-13 -.746E+01   0.644E+00 0.421E-17 0.131E+00   0.472E-01 0.509E-14 -.217E-02
   0.460E+02 -.481E-12 -.734E+01   -.467E+02 0.805E-14 0.746E+01   0.644E+00 0.894E-17 -.131E+00   0.472E-01 0.940E-14 0.217E-02
   0.246E+02 0.204E-11 0.388E+02   -.255E+02 -.879E-14 -.430E+02   0.851E+00 0.384E-17 0.413E+01   0.107E-01 0.107E-13 0.603E-02
   0.246E+02 0.147E-11 -.388E+02   -.255E+02 0.518E-14 0.430E+02   0.851E+00 -.144E-17 -.413E+01   0.107E-01 0.158E-13 -.603E-02
   -.246E+02 -.361E-11 -.388E+02   0.255E+02 0.157E-13 0.430E+02   -.851E+00 0.325E-17 -.413E+01   -.107E-01 0.000E+00 -.603E-02
   -.246E+02 0.115E-11 0.388E+02   0.255E+02 0.192E-14 -.430E+02   -.851E+00 0.153E-17 0.413E+01   -.107E-01 -.171E-13 0.603E-02
   -.275E+02 0.160E-11 -.211E+03   0.312E+02 -.916E-14 0.236E+03   -.375E+01 -.239E-17 -.250E+02   0.466E-02 0.179E-14 -.315E-01
   -.275E+02 -.612E-11 0.211E+03   0.312E+02 0.119E-13 -.236E+03   -.375E+01 -.204E-18 0.250E+02   0.466E-02 0.693E-14 0.315E-01
   0.275E+02 0.386E-12 0.211E+03   -.312E+02 0.151E-13 -.236E+03   0.375E+01 -.530E-17 0.250E+02   -.466E-02 0.594E-14 0.315E-01
   0.275E+02 0.100E-13 -.211E+03   -.312E+02 -.599E-14 0.236E+03   0.375E+01 0.324E-17 -.250E+02   -.466E-02 0.172E-13 -.315E-01
   -.524E-09 -.733E-12 -.238E-09   0.426E-13 0.592E-14 -.284E-13   0.444E-15 0.114E-16 0.000E+00   0.751E-12 0.643E-13 0.304E-12

 POSITION                                       TOTAL-FORCE (eV/Angst)
      1.24416      0.70920      0.15277         0.016494      0.000000     -0.003102
      5.82496      0.70920      2.11844         0.016494     -0.000000      0.003102
      7.91743      2.12760      4.38966        -0.016494     -0.000000      0.003102
      3.33664      2.12760      2.42398        -0.016494      0.000000     -0.003102
      2.54043      0.70920      1.47863         0.019507      0.000000     -0.010444
      7.12123      0.70920      0.79259         0.019507      0.000000      0.010444
      6.62116      2.12760      3.06380        -0.019507     -0.000000      0.010444
      2.04036      2.12760      3.74984        -0.019507      0.000000     -0.010444
      4.28044      0.70920      3.23657        -0.014541     -0.000000      0.020798
      8.86124      0.70920      3.57707        -0.014541     -0.000000     -0.020798
      4.88115      2.12760      1.30586         0.014541      0.000000     -0.020798
      0.30035      2.12760      0.96536         0.014541     -0.000000      0.020798
    total drift:                               -0.000000     -0.000000     -0.000000

  FREE ENERGIE OF THE ION-ELECTRON SYSTEM (eV)
  free  energy   TOTEN  =      -100.68288392 eV

  energy  without entropy=     -100.68288392  energy(sigma->0) =     -100.68288392

 BZINTS: Fermi energy:  3.169860; 76.000000 electrons
         Band energy:-274.225228;  BLOECHL correction:  0.000000