 vasp.5.3.3 18Dez12 (build May 12 2016 12:04:25) complex

 executed on             LinuxIFC date 2017.03.09  11:06:49

 INCAR:
 POTCAR:    PAW_PBE Mn 06Sep2000
 POTCAR:    PAW_PBE O 08Apr2002
 POTCAR:    PAW_PBE Mn 06Sep2000

 POTCAR:    PAW_PBE O 08Apr2002

  PAW_PBE Mn 06Sep2000                  :
  PAW_PBE O 08Apr2002                   :

 POSCAR:
  positions in direct lattice
  velocities in cartesian coordinates
 exchange correlation table for  LEXCH =        8
   RHO(1)=    0.500       N(1)  =     2000
   RHO(2)=  100.500       N(2)  =     4000

 ion  position               nearest neighbor table
   1  0.250  0.021  0.135-   8 1.91   8 1.91   5 1.92  12 1.94  12 1.94  10 1.94   3 2.94   3 2.94

   2  0.250  0.479  0.635-   7 1.91   7 1.91   6 1.92  11 1.94  11 1.94   9 1.94   4 2.94   4 2.94

[...]

   5  0.250  0.310  0.283-   4 1.91   4 1.91   1 1.92
   6  0.250  0.190  0.783-   3 1.91   3 1.91   2 1.92
   7  0.750  0.690  0.717-   2 1.91   2 1.91   3 1.92
   8  0.750  0.810  0.217-   1 1.91   1 1.91   4 1.92
   9  0.250  0.712  0.463-   4 1.94   4 1.94   2 1.94
  10  0.250  0.788  0.963-   3 1.94   3 1.94   1 1.94
  11  0.750  0.288  0.537-   2 1.94   2 1.94   4 1.94
  12  0.750  0.212  0.037-   1 1.94   1 1.94   3 1.94

  LATTYP: Found a simple orthorhombic cell.
 ALAT       =     2.9217416777
 B/A-ratio  =     1.5685735708
 C/A-ratio  =     3.2253142213

  Lattice vectors:

 A1 = (   0.0000000000,   2.9217416777,   0.0000000000)
 A2 = (   0.0000000000,   0.0000000000,   4.5829667762)
 A3 = (   9.4235349840,   0.0000000000,   0.0000000000)

Analysis of symmetry for initial positions (statically):
 Subroutine PRICEL returns:
 Original cell was already a primitive cell.

 Routine SETGRP: Setting up the symmetry group for a
 simple orthorhombic supercell.

 Subroutine GETGRP returns: Found  8 space group operations
 (whereof  2 operations were pure point group operations)
 out of a pool of  8 trial point group operations.

The static configuration has the point symmetry S_2 .
 The point group associated with its full space group is D_2h.

Analysis of symmetry for dynamics (positions and initial velocities):
 Subroutine PRICEL returns:
 Original cell was already a primitive cell.

 Routine SETGRP: Setting up the symmetry group for a
 simple orthorhombic supercell.

 Subroutine GETGRP returns: Found  8 space group operations
 (whereof  2 operations were pure point group operations)
 out of a pool of  8 trial point group operations.

The dynamic configuration has the point symmetry S_2 .
 The point group associated with its full space group is D_2h.

Analysis of magnetic symmetry:

 Subroutine MAGSYM returns: Found  8 space group operations
 (whereof  2 operations were pure point group operations)
 out of a pool of  8 trial space group operations
 (whereof  2 operations were pure point group operations)
 and found also     1 'primitive' translations

The magnetic configuration has the point symmetry S_2 .
 The point group associated with its full space group is D_2h.

 irot  :   1
 isymop:   1   0   0
           0   1   0
           0   0   1

 gtrans:     0.0000000     0.0000000     0.0000000

 ptrans:     0.0000000     0.0000000     0.0000000
 rotmap:
 (   1->   1)  (   2->   2)  (   3->   3)  (   4->   4)  (   5->   5)
 (   6->   6)  (   7->   7)  (   8->   8)  (   9->   9)  (  10->  10)
 (  11->  11)  (  12->  12)

[...]

 irot  :   8
 isymop:  -1   0   0
           0   1   0
           0   0   1

 gtrans:     0.5000000     0.0000000     0.0000000

 ptrans:     0.0000000     0.0000000     0.0000000
 rotmap:
 (   1->   1)  (   2->   2)  (   3->   3)  (   4->   4)  (   5->   5)
 (   6->   6)  (   7->   7)  (   8->   8)  (   9->   9)  (  10->  10)
 (  11->  11)  (  12->  12)

 KPOINTS: con0.5

Automatic generation of k-mesh.
Space group operators:
 irot       det(A)        alpha          n_x          n_y          n_z        tau_x        tau_y        tau_z
    1     1.000000     0.000000     1.000000     0.000000     0.000000     0.000000     0.000000     0.000000
    2    -1.000000     0.000000     1.000000     0.000000     0.000000     0.000000     0.000000     0.000000
    3     1.000000   180.000000     1.000000     0.000000     0.000000     0.500000     0.500000     0.500000
    4    -1.000000   180.000000     1.000000     0.000000     0.000000     0.500000     0.500000     0.500000
    5     1.000000   180.000000     0.000000     0.000000     1.000000     0.000000     0.500000     0.500000
    6    -1.000000   180.000000     0.000000     0.000000     1.000000     0.000000     0.500000     0.500000
    7     1.000000   180.000000     0.000000     1.000000     0.000000     0.500000     0.000000     0.000000
    8    -1.000000   180.000000     0.000000     1.000000     0.000000     0.500000     0.000000     0.000000

 Subroutine IBZKPT returns following result:

 Found     24 irreducible k-points:

 Following reciprocal coordinates:
            Coordinates               Weight
  0.000000  0.000000  0.000000      1.000000
  0.166667  0.000000  0.000000      2.000000
  0.333333  0.000000  0.000000      2.000000
  0.500000  0.000000  0.000000      1.000000
  0.000000  0.250000  0.000000      2.000000
  0.166667  0.250000  0.000000      4.000000
  0.333333  0.250000  0.000000      4.000000
  0.500000  0.250000  0.000000      2.000000
  0.000000  0.500000  0.000000      1.000000
  0.166667  0.500000  0.000000      2.000000
  0.333333  0.500000  0.000000      2.000000
  0.500000  0.500000  0.000000      1.000000
  0.000000  0.000000  0.500000      1.000000
  0.166667  0.000000  0.500000      2.000000
  0.333333  0.000000  0.500000      2.000000
  0.500000  0.000000  0.500000      1.000000
  0.000000  0.250000  0.500000      2.000000
  0.166667  0.250000  0.500000      4.000000
  0.333333  0.250000  0.500000      4.000000
  0.500000  0.250000  0.500000      2.000000
  0.000000  0.500000  0.500000      1.000000
  0.166667  0.500000  0.500000      2.000000
  0.333333  0.500000  0.500000      2.000000
  0.500000  0.500000  0.500000      1.000000

 Following cartesian coordinates:
            Coordinates               Weight
  0.000000  0.000000  0.000000      1.000000
  0.000000  0.057044  0.000000      2.000000
  0.000000  0.114087  0.000000      2.000000
  0.000000  0.171131  0.000000      1.000000
  0.000000  0.000000  0.054550      2.000000
  0.000000  0.057044  0.054550      4.000000
  0.000000  0.114087  0.054550      4.000000
  0.000000  0.171131  0.054550      2.000000
  0.000000  0.000000  0.109100      1.000000
  0.000000  0.057044  0.109100      2.000000
  0.000000  0.114087  0.109100      2.000000
  0.000000  0.171131  0.109100      1.000000
  0.053059  0.000000  0.000000      1.000000
  0.053059  0.057044  0.000000      2.000000
  0.053059  0.114087  0.000000      2.000000
  0.053059  0.171131  0.000000      1.000000
  0.053059  0.000000  0.054550      2.000000
  0.053059  0.057044  0.054550      4.000000
  0.053059  0.114087  0.054550      4.000000
  0.053059  0.171131  0.054550      2.000000
  0.053059  0.000000  0.109100      1.000000
  0.053059  0.057044  0.109100      2.000000
  0.053059  0.114087  0.109100      2.000000
  0.053059  0.171131  0.109100      1.000000

 TETIRR: Found    144 inequivalent tetrahedra from      288

 I would recommend the setting:
   dimension x,y,z NGX =    16 NGY =   26 NGZ =   53
 SYSTEM =  unknown system
 POSCAR =

 Startparameter for this run:
   NWRITE =      1    write-flag & timer
   PREC   = normal    normal or accurate (medium, high low for compatibility)
   ISTART =      1    job   : 0-new  1-cont  2-samecut
   ICHARG =     11    charge: 1-file 2-atom 10-const
   ISPIN  =      2    spin polarized calculation?
   LNONCOLLINEAR =      F non collinear calculations
   LSORBIT =      F    spin-orbit coupling
   INIWAV =      1    electr: 0-lowe 1-rand  2-diag
   LASPH  =      F    aspherical Exc in radial PAW
   METAGGA=      F    non-selfconsistent MetaGGA calc.

 Electronic Relaxation 1
   ENCUT  =  520.0 eV  38.22 Ry    6.18 a.u.   5.43  8.52 17.52*2*pi/ulx,y,z
   ENINI  =  520.0     initial cutoff
   ENAUG  =  605.4 eV  augmentation charge cutoff
   NELM   =     60;   NELMIN=  5; NELMDL=  0     # of ELM steps
   EDIFF  = 0.1E-04   stopping-criterion for ELM
   LREAL  =      F    real-space projection
   NLSPLINE    = F    spline interpolate recip. space projectors
   LCOMPAT=      F    compatible to vasp.4.4
   GGA_COMPAT  = T    GGA compatible to vasp.4.4-vasp.4.6
   LMAXPAW     = -100 max onsite density
   LMAXMIX     =    4 max onsite mixed and CHGCAR
   VOSKOWN=      1    Vosko Wilk Nusair interpolation
   ROPT   =    0.00000   0.00000
 Ionic relaxation
   EDIFFG = -.2E-01   stopping-criterion for IOM
   NSW    =      0    number of steps for IOM
   NBLOCK =      1;   KBLOCK =      1    inner block; outer block
   IBRION =     -1    ionic relax: 0-MD 1-quasi-New 2-CG
   NFREE  =      0    steps in history (QN), initial steepest desc. (CG)
   ISIF   =      2    stress and relaxation
   IWAVPR =     10    prediction:  0-non 1-charg 2-wave 3-comb
   ISYM   =      2    0-nonsym 1-usesym 2-fastsym
   LCORR  =      T    Harris-Foulkes like correction to forces

   POTIM  = 0.5000    time-step for ionic-motion
   TEIN   =    0.0    initial temperature
   TEBEG  =    0.0;   TEEND  =   0.0 temperature during run
   SMASS  =  -3.00    Nose mass-parameter (am)
   estimated Nose-frequenzy (Omega)   =  0.10E-29 period in steps =****** mass=  -0.195E-27a.u.
   SCALEE = 1.0000    scale energy and forces
   NPACO  =    256;   APACO  = 16.0  distance and # of slots for P.C.
   PSTRESS=    0.0 pullay stress

  Mass of Ions in am
   POMASS =  54.94 16.00
  Ionic Valenz
   ZVAL   =   7.00  6.00
  Atomic Wigner-Seitz radii
  virtual crystal weights
   VCA    =   1.00  1.00
   NELECT =      76.0000    total number of electrons
   NUPDOWN=      -1.0000    fix difference up-down

 DOS related values:
   EMIN   =  10.00;   EMAX   =-10.00  energy-range for DOS
   EFERMI =   0.00
   ISMEAR =    -5;   SIGMA  =   0.20  broadening in eV -4-tet -1-fermi 0-gaus

 Electronic relaxation 2 (details)
   IALGO  =     38    algorithm
   LDIAG  =      T    sub-space diagonalisation (order eigenvalues)
   LSUBROT=      T    optimize rotation matrix (better conditioning)
   TURBO    =      0    0=normal 1=particle mesh
   IRESTART =      0    0=no restart 2=restart with 2 vectors
   NREBOOT  =      0    no. of reboots
   NMIN     =      0    reboot dimension
   EREF     =   0.00    reference energy to select bands
   IMIX   =      4    mixing-type and parameters
     AMIX     =   0.40;   BMIX     =  1.00
     AMIX_MAG =   1.60;   BMIX_MAG =  1.00
     AMIN     =   0.10
     WC   =   100.;   INIMIX=   1;  MIXPRE=   1;  MAXMIX= -45

 Intra band minimization:
   WEIMIN = 0.0000     energy-eigenvalue tresh-hold
   EBREAK =  0.52E-07  absolut break condition
   DEPER  =   0.30     relativ break condition

   TIME   =   0.40     timestep for ELM

  volume/ion in A,a.u.               =      10.52        70.96
  Fermi-wavevector in a.u.,A,eV,Ry     =   1.382543  2.612627 26.006509  1.911424
  Thomas-Fermi vector in A             =   2.507224

 Write flags
[...]
   0.50000000  0.50000000  0.00000000       0.021
   0.00000000  0.00000000  0.50000000       0.021
   0.16666667  0.00000000  0.50000000       0.042
   0.33333333  0.00000000  0.50000000       0.042
   0.50000000  0.00000000  0.50000000       0.021
   0.00000000  0.25000000  0.50000000       0.042
   0.16666667  0.25000000  0.50000000       0.083
   0.33333333  0.25000000  0.50000000       0.083
   0.50000000  0.25000000  0.50000000       0.042
   0.00000000  0.50000000  0.50000000       0.021
   0.16666667  0.50000000  0.50000000       0.042
   0.33333333  0.50000000  0.50000000       0.042
   0.50000000  0.50000000  0.50000000       0.021

 position of ions in fractional coordinates (direct lattice)
   0.25000000  0.02127641  0.13510657
   0.25000000  0.47872359  0.63510657
   0.75000000  0.97872359  0.86489343
   0.75000000  0.52127641  0.36489343
   0.25000000  0.30995413  0.28336249
   0.25000000  0.19004587  0.78336249
   0.75000000  0.69004587  0.71663751
   0.75000000  0.80995413  0.21663751
   0.25000000  0.71205780  0.46291998
   0.25000000  0.78794220  0.96291998
   0.75000000  0.28794220  0.53708002
   0.75000000  0.21205780  0.03708002

 position of ions in cartesian coordinates  (Angst):
   1.27318150  0.73043542  0.09750907
   5.98494899  0.73043542  2.19397432
   8.15035348  2.19130626  4.48545771
   3.43858599  2.19130626  2.38899245
   2.67027638  0.73043542  1.42050948
   7.38204387  0.73043542  0.87097391
   6.75325861  2.19130626  3.16245730
   2.04149112  2.19130626  3.71199287
   4.36234258  0.73043542  3.26333725
   9.07411007  0.73043542  3.61111291
   5.06119240  2.19130626  1.31962952
   0.34942491  2.19130626  0.97185386

 k-point  1 :   0.0000 0.0000 0.0000  plane waves:    3437
 k-point  2 :   0.1667 0.0000 0.0000  plane waves:    3407
 k-point  3 :   0.3333 0.0000 0.0000  plane waves:    3399
 k-point  4 :   0.5000 0.0000 0.0000  plane waves:    3382
 k-point  5 :   0.0000 0.2500 0.0000  plane waves:    3409
 k-point  6 :   0.1667 0.2500 0.0000  plane waves:    3422
 k-point  7 :   0.3333 0.2500 0.0000  plane waves:    3391
 k-point  8 :   0.5000 0.2500 0.0000  plane waves:    3382
 k-point  9 :   0.0000 0.5000 0.0000  plane waves:    3394
 k-point 10 :   0.1667 0.5000 0.0000  plane waves:    3406
 k-point 11 :   0.3333 0.5000 0.0000  plane waves:    3380
 k-point 12 :   0.5000 0.5000 0.0000  plane waves:    3376
 k-point 13 :   0.0000 0.0000 0.5000  plane waves:    3404
 k-point 14 :   0.1667 0.0000 0.5000  plane waves:    3394
 k-point 15 :   0.3333 0.0000 0.5000  plane waves:    3410
 k-point 16 :   0.5000 0.0000 0.5000  plane waves:    3388
 k-point 17 :   0.0000 0.2500 0.5000  plane waves:    3426
 k-point 18 :   0.1667 0.2500 0.5000  plane waves:    3406
 k-point 19 :   0.3333 0.2500 0.5000  plane waves:    3396
 k-point 20 :   0.5000 0.2500 0.5000  plane waves:    3372
 k-point 21 :   0.0000 0.5000 0.5000  plane waves:    3404
 k-point 22 :   0.1667 0.5000 0.5000  plane waves:    3392
 k-point 23 :   0.3333 0.5000 0.5000  plane waves:    3364
 k-point 24 :   0.5000 0.5000 0.5000  plane waves:    3360

 maximum and minimum number of plane-waves per node :       870      832

 maximum number of plane-waves:      3437
 maximum index in each direction:
   IXMAX=    5   IYMAX=    8   IZMAX=   17
   IXMIN=   -5   IYMIN=   -9   IZMIN=  -18

 WARNING: aliasing errors must be expected set NGX to  22 to avoid them
 WARNING: aliasing errors must be expected set NGY to  36 to avoid them
 WARNING: aliasing errors must be expected set NGZ to  72 to avoid them
 aliasing errors are usually negligible using standard VASP settings
 and one can safely disregard these warnings

 parallel 3D FFT for wavefunctions:
    minimum data exchange during FFTs selected (reduces bandwidth)
 parallel 3D FFT for charge:
    minimum data exchange during FFTs selected (reduces bandwidth)

 initial charge density was supplied:
 number of electron      76.0000009 magnetization      -0.0000000
 keeping initial charge density in first step

 Maximum index for augmentation-charges          225 (set IRDMAX)

 First call to EWALD:  gamma=   0.353
 Maximum number of real-space cells 4x 3x 2
 Maximum number of reciprocal cells 2x 3x 5

 FEWALD executed in parallel

----------------------------------------- Iteration    1(   1)  ---------------------------------------

 BZINTS: Fermi energy:  2.950564; 76.000000 electrons
         Band energy:-305.296747;  BLOECHL correction:  0.000000

 eigenvalue-minimisations  :  4856
 total energy-change (2. order) :-0.7373567E+02  (-0.9170369E+02)
 number of electron      76.0000009 magnetization      -0.0000000
 augmentation part       76.0000009 magnetization      -0.0000000

 Free energy of the ion-electron system (eV)
  alpha Z        PSCENC =       301.59653201
  Ewald energy   TEWEN  =     -4075.56072845
  -1/2 Hartree   DENC   =     -1372.20949180
  -exchange  EXHF       =         0.00000000
  -V(xc)+E(xc)   XCENC  =       186.56882893
  PAW double counting   =      6390.94297659    -6325.64780575
  entropy T*S    EENTRO =         0.00000000
  eigenvalues    EBANDS =      -305.29674725
  atomic energy  EATOM  =      5125.87076976
  free energy    TOTEN  =       -73.73566596 eV

  energy without entropy =      -73.73566596  energy(sigma->0) =      -73.73566596

[...]

----------------------------------------- Iteration    1(   7)  ---------------------------------------

[...]

 eigenvalue-minimisations  :  3832
 total energy-change (2. order) :-0.6168577E-06  (-0.6168280E-06)
 number of electron      76.0000009 magnetization      -0.0000000
 augmentation part       76.0000009 magnetization      -0.0000000

 Free energy of the ion-electron system (eV)
  alpha Z        PSCENC =       301.59653201
  Ewald energy   TEWEN  =     -4075.56072845
  -1/2 Hartree   DENC   =     -1372.20949180
  -exchange  EXHF       =         0.00000000
  -V(xc)+E(xc)   XCENC  =       186.56882893
  PAW double counting   =      6390.94297659    -6325.64780575
  entropy T*S    EENTRO =         0.00000000
  eigenvalues    EBANDS =      -316.14116790
  atomic energy  EATOM  =      5125.87076976
  free energy    TOTEN  =       -84.58008661 eV

  energy without entropy =      -84.58008661  energy(sigma->0) =      -84.58008661

 average (electrostatic) potential at core
  the test charge radii are     1.0210  0.7215
  (the norm of the test charge is              1.0000)
       1 -48.5139       2 -48.5139       3 -48.5139       4 -48.5139       5 -72.2272
       6 -72.2272       7 -72.2272       8 -72.2272       9 -72.6083      10 -72.6083
      11 -72.6083      12 -72.6083

 E-fermi :   2.0685     XC(G=0): -10.9653     alpha+bet :-10.1080

 spin component 1

 k-point   1 :       0.0000    0.0000    0.0000
  band No.  band energies     occupation
      1     -16.7359      1.00000
      2     -16.2034      1.00000
      3     -15.8202      1.00000
      4     -15.1147      1.00000
      5     -14.8583      1.00000
      6     -14.7963      1.00000
      7     -14.6979      1.00000
      8     -14.5925      1.00000
      9      -4.7334      1.00000
     10      -4.3555      1.00000
     11      -3.7637      1.00000
     12      -3.3818      1.00000
     13      -3.2714      1.00000
     14      -3.0103      1.00000
     15      -2.9079      1.00000
     16      -2.8820      1.00000
     17      -2.3244      1.00000
     18      -2.2854      1.00000
     19      -2.1234      1.00000
     20      -1.8262      1.00000
     21      -1.8009      1.00000
     22      -1.5413      1.00000
     23      -1.2456      1.00000
     24      -0.7601      1.00000
     25      -0.5883      1.00000
     26      -0.5764      1.00000
     27      -0.3911      1.00000
     28      -0.1199      1.00000
     29       0.0517      1.00000
     30       0.5660      1.00000
     31       0.6162      1.00000
     32       0.6494      1.00000
     33       0.9322      1.00000
     34       1.2158      1.00000
     35       1.3611      1.00000
     36       1.5691      1.00000
     37       1.8027      1.00000
     38       2.0541      1.00000
     39       3.5399      0.00000
     40       3.9922      0.00000
     41       4.3336      0.00000
     42       4.4379      0.00000
     43       4.8889      0.00000
     44       4.9333      0.00000
     45       5.5316      0.00000
     46       5.5429      0.00000
     47       5.7356      0.00000
     48       5.9148      0.00000

[...]

 spin component 2

[...]

 k-point  24 :       0.5000    0.5000    0.5000
  band No.  band energies     occupation
      1     -15.3861      1.00000
      2     -15.3861      1.00000
      3     -15.1602      1.00000
      4     -15.1602      1.00000
      5     -14.9092      1.00000
      6     -14.9092      1.00000
      7     -14.8727      1.00000
      8     -14.8727      1.00000
      9      -4.4207      1.00000
     10      -4.4207      1.00000
     11      -3.5065      1.00000
     12      -3.5065      1.00000
     13      -2.8460      1.00000
     14      -2.8460      1.00000
     15      -2.6859      1.00000
     16      -2.6859      1.00000
     17      -2.4360      1.00000
     18      -2.4360      1.00000
     19      -2.1943      1.00000
     20      -2.1943      1.00000
     21      -1.7562      1.00000
     22      -1.7562      1.00000
     23      -1.3286      1.00000
     24      -1.3286      1.00000
     25      -0.9406      1.00000
     26      -0.9406      1.00000
     27      -0.7958      1.00000
     28      -0.7958      1.00000
     29      -0.3581      1.00000
     30      -0.3581      1.00000
     31       0.2777      1.00000
     32       0.2777      1.00000
     33       0.7027      1.00000
     34       0.7027      1.00000
     35       1.3710      1.00000
     36       1.3710      1.00000
     37       1.4006      1.00000
     38       1.4006      1.00000
     39       3.6715      0.00000
     40       3.6715      0.00000
     41       4.0178      0.00000
     42       4.0178      0.00000
     43       5.1753      0.00000
     44       5.1753      0.00000
     45       5.4093      0.00000
     46       5.4093      0.00000
     47       5.6093      0.00000
     48       5.6093      0.00000

 soft charge-density along one line, spin component           1
         0         1         2         3         4         5         6         7         8         9
 total charge-density along one line

 soft charge-density along one line, spin component           2
         0         1         2         3         4         5         6         7         8         9
 total charge-density along one line

------------------------ aborting loop because EDIFF is reached ----------------------------------------

 total charge

# of ion     s       p       d       tot
  1        0.345   0.534   4.785   5.664
  2        0.345   0.534   4.785   5.664
  3        0.345   0.534   4.785   5.664
  4        0.345   0.534   4.785   5.664
  5        1.566   3.453   0.000   5.019
  6        1.566   3.453   0.000   5.019
  7        1.566   3.453   0.000   5.019
  8        1.566   3.453   0.000   5.019
  9        1.587   3.380   0.000   4.967
 10        1.587   3.380   0.000   4.967
 11        1.587   3.380   0.000   4.967
 12        1.587   3.380   0.000   4.967
tot       13.991  29.470  19.142  62.603

 magnetization (x)

[...]

  FORCE on cell =-STRESS in cart. coord.  units (eV):
  Direction    XX          YY          ZZ          XY          YZ          ZX
  Alpha Z   301.59653   301.59653   301.59653
  Ewald   -1239.53147  -851.74206 -1984.29242     0.00000    -0.00000    -0.00000
  Hartree   538.15660   730.80273   103.13132    -0.00000    -0.00000    -0.00000
  E(xc)    -373.83620  -373.90552  -374.02502    -0.00000    -0.00000    -0.00000
  Local    -456.30129 -1013.56071   702.54166    -0.00000    -0.00000     0.00000
  n-local  -259.31457  -253.02401  -262.22746     0.00000    -0.01208     0.00001
  augment   176.53889   173.46531   179.08737    -0.00000     0.00000    -0.00000
  Kinetic  1312.63302  1285.88779  1334.29528    -0.00007    -0.41099     0.00001
  Fock        0.00000     0.00000     0.00000     0.00000     0.00000     0.00000
  Total      -0.05848    -0.47994     0.10725     0.00000     0.00000     0.00000
  in kB      -0.74253    -6.09390     1.36177     0.00000     0.00000     0.00000

 VOLUME and BASIS-vectors are now :
  energy-cutoff  :      520.00
  volume of cell :      126.18
      direct lattice vectors                 reciprocal lattice vectors
     0.000000000  2.921741678  0.000000000     0.000000000  0.342261606  0.000000000
     0.000000000  0.000000000  4.582966776     0.000000000  0.000000000  0.218199269
     9.423534984  0.000000000  0.000000000     0.106117291  0.000000000  0.000000000

  length of vectors
     2.921741678  4.582966776  9.423534984     0.342261606  0.218199269  0.106117291

 FORCES acting on ions
    electron-ion (+dipol)            ewald-force                    non-local-force                 convergence-correction
   -.445E+02 -.652E-13 -.672E+01   0.454E+02 0.318E-14 0.661E+01   -.853E+00 -.285E-17 0.118E+00   0.160E-01 -.239E-13 0.864E-03
   -.445E+02 0.495E-13 0.672E+01   0.454E+02 -.303E-13 -.661E+01   -.853E+00 -.361E-17 -.118E+00   0.160E-01 -.287E-13 -.864E-03
   0.445E+02 -.186E-13 0.672E+01   -.454E+02 0.113E-13 -.661E+01   0.853E+00 -.858E-18 -.118E+00   -.160E-01 0.453E-13 -.864E-03
   0.445E+02 0.936E-13 -.672E+01   -.454E+02 0.132E-13 0.661E+01   0.853E+00 0.285E-18 0.118E+00   -.160E-01 -.137E-12 0.864E-03
   0.199E+02 0.118E-12 0.479E+02   -.199E+02 0.151E-14 -.536E+02   0.517E-01 0.171E-18 0.573E+01   0.151E-02 -.198E-13 -.238E-01
   0.199E+02 0.128E-12 -.479E+02   -.199E+02 -.254E-13 0.536E+02   0.517E-01 -.238E-18 -.573E+01   0.151E-02 -.348E-13 0.238E-01
   -.199E+02 0.214E-12 -.479E+02   0.199E+02 0.979E-14 0.536E+02   -.517E-01 -.252E-18 -.573E+01   -.151E-02 0.739E-13 0.238E-01
   -.199E+02 0.223E-12 0.479E+02   0.199E+02 0.259E-13 -.536E+02   -.517E-01 0.756E-20 0.573E+01   -.151E-02 -.466E-13 -.238E-01
   -.180E+02 0.890E-13 -.197E+03   0.202E+02 -.138E-13 0.223E+03   -.214E+01 -.152E-17 -.252E+02   0.965E-02 0.174E-12 0.333E-01
   -.180E+02 0.131E-12 0.197E+03   0.202E+02 -.963E-14 -.223E+03   -.214E+01 0.171E-17 0.252E+02   0.965E-02 -.955E-13 -.333E-01
   0.180E+02 0.188E-12 0.197E+03   -.202E+02 0.246E-13 -.223E+03   0.214E+01 0.159E-17 0.252E+02   -.965E-02 -.424E-13 -.333E-01
   0.180E+02 0.206E-12 -.197E+03   -.202E+02 -.115E-15 0.223E+03   0.214E+01 0.282E-18 -.252E+02   -.965E-02 0.194E-14 0.333E-01
   0.470E-09 0.136E-11 0.491E-11   0.213E-13 0.103E-13 -.568E-13   0.000E+00 -.527E-17 0.355E-14   -.135E-10 -.134E-12 0.359E-12

 POSITION                                       TOTAL-FORCE (eV/Angst)
      1.27318      0.73044      0.09751         0.001047      0.000000      0.003757
      5.98495      0.73044      2.19397         0.001047     -0.000000     -0.003757
      8.15035      2.19131      4.48546        -0.001047     -0.000000     -0.003757
      3.43859      2.19131      2.38899        -0.001047     -0.000000      0.003757
      2.67028      0.73044      1.42051         0.008906      0.000000      0.019185
      7.38204      0.73044      0.87097         0.008906      0.000000     -0.019185
      6.75326      2.19131      3.16246        -0.008906      0.000000     -0.019185
      2.04149      2.19131      3.71199        -0.008906      0.000000      0.019185
      4.36234      0.73044      3.26334         0.005386     -0.000000     -0.022557
      9.07411      0.73044      3.61111         0.005386     -0.000000      0.022557
      5.06119      2.19131      1.31963        -0.005386     -0.000000      0.022557
      0.34942      2.19131      0.97185        -0.005386      0.000000     -0.022557
    total drift:                                0.000000      0.000000      0.000000

  FREE ENERGIE OF THE ION-ELECTRON SYSTEM (eV)
  free  energy   TOTEN  =       -84.58008661 eV

  energy  without entropy=      -84.58008661  energy(sigma->0) =      -84.58008661

 writing wavefunctions

 total charge

[...]

 magnetization (x)

# of ion     s       p       d       tot
  1        0.025   0.034   3.111   3.171
  2       -0.025  -0.034  -3.111  -3.171
  3        0.025   0.034   3.111   3.171
  4       -0.025  -0.034  -3.111  -3.171
  5       -0.000   0.013   0.000   0.013
  6        0.000  -0.013   0.000  -0.013
  7       -0.000   0.013   0.000   0.013
  8        0.000  -0.013   0.000  -0.013
  9       -0.001   0.183   0.000   0.183
 10        0.001  -0.183   0.000  -0.183
 11       -0.001   0.183   0.000   0.183
 12        0.001  -0.183   0.000  -0.183
tot       -0.000   0.000   0.000  -0.000

 BZINTS: Fermi energy:  2.068530; 76.000000 electrons
         Band energy:-316.141168;  BLOECHL correction:  0.000000