 vasp.5.3.3 18Dez12 (build May 12 2016 12:04:25) complex

 executed on             LinuxIFC date 2019.03.14  12:47:43

 INCAR:
 POTCAR:   PAW_PBE Mn 06Sep2000
 POTCAR:   PAW_PBE O_s 07Sep2000
 POTCAR:    PAW_PBE Li 17Jan2003
 POTCAR:   PAW_PBE Mn 06Sep2000

 POTCAR:   PAW_PBE O_s 07Sep2000

 POTCAR:    PAW_PBE Li 17Jan2003

 PAW_PBE Mn 06Sep2000                   :
 PAW_PBE O_s 07Sep2000                  :
  PAW_PBE Li 17Jan2003                  :

 POSCAR: (Li2 Mn15 O30)2  (P1) ~ CONTCAR (VASP)
  positions in direct lattice
  velocities in cartesian coordinates
 exchange correlation table for  LEXCH =        8
   RHO(1)=    0.500       N(1)  =     2000
   RHO(2)=  100.500       N(2)  =     4000

 ion  position               nearest neighbor table
   1  0.066  0.257  0.604-  52 1.92  52 1.93  63 1.94  72 1.95  72 1.95  31 1.96  10 2.95  10 2.95

   2  0.065  0.255  0.469-  51 1.92  51 1.92  64 1.93  32 1.93  71 1.95  71 1.95   9 2.94   9 2.94

[...]

  11  0.459  0.260  0.673-  42 1.90  41 1.92  41 1.92  62 1.97  62 1.98  53 1.99  91 2.74  91 2.74
                            91 2.87  91 2.87  20 3.04  20 3.05
  12  0.449  0.256  0.537-  40 1.92  40 1.92  54 1.93  43 1.93  61 1.95  61 1.95  19 2.94  19 2.94

[...]

  19  0.565  0.756  0.500-  32 1.91  32 1.91  51 1.93  61 1.94  54 1.95  54 1.95  12 2.94  12 2.94

  20  0.569  0.759  0.635-  31 1.90  31 1.91  52 1.91  62 1.94  53 2.01  53 2.02  91 2.73  11 3.04
                            11 3.05
  21  0.970  0.761  0.707-  77 1.90  77 1.90  86 1.94  42 2.01  42 2.02  41 2.05  91 2.78
  22  0.971  0.762  0.770-  78 1.92  78 1.92  82 1.93  82 1.93  87 1.95  73 1.95
  23  0.970  0.762  0.833-  79 1.92  79 1.93  83 1.93  83 1.93  74 1.95  88 1.95
  24  0.969  0.761  0.896-  84 1.92  84 1.93  80 1.93  80 1.93  75 1.95  89 1.96
  25  0.967  0.759  0.959-  85 1.93  85 1.93  81 1.93  81 1.93  76 1.95  90 1.96
  26  0.470  0.262  0.738-  73 1.92  73 1.92  86 1.94  86 1.94  82 1.95  77 1.98
  27  0.470  0.262  0.801-  74 1.92  74 1.93  87 1.93  87 1.93  83 1.95  78 1.95
  28  0.470  0.261  0.864-  88 1.93  88 1.93  75 1.93  75 1.93  79 1.95  84 1.95
  29  0.469  0.260  0.928-  89 1.92  89 1.93  76 1.93  76 1.93  80 1.95  85 1.96
  30  0.466  0.258  0.991-  90 1.92  90 1.92  33 1.93  33 1.93  50 1.95  81 1.96
  31  0.397  0.258  0.622-  20 1.90  20 1.91   1 1.96
  32  0.397  0.256  0.486-  19 1.91  19 1.91   2 1.93
  33  0.638  0.758  0.005-  30 1.93  30 1.93   3 1.94
  34  0.384  0.254  0.352-  18 1.91  18 1.91   4 1.94
  35  0.664  0.754  0.141-  17 1.92  17 1.92   5 1.93
  36  0.351  0.253  0.217-  16 1.92  16 1.92   6 1.94
  37  0.637  0.753  0.279-  15 1.92  15 1.92   7 1.93
  38  0.347  0.255  0.079-  14 1.92  14 1.92   8 1.94
  39  0.618  0.754  0.416-  13 1.92  13 1.92   9 1.93
  40  0.616  0.756  0.551-  12 1.92  12 1.92  10 1.93
  41  0.648  0.761  0.686-  11 1.92  11 1.92  91 1.94  21 2.05
  42  0.124  0.261  0.689-  11 1.90  21 2.01  21 2.02  91 2.33  91 2.33
  43  0.116  0.257  0.554-  10 1.91  10 1.91  12 1.93
  44  0.117  0.255  0.419-   9 1.91   9 1.91  13 1.93
  45  0.848  0.756  0.072-   8 1.92   8 1.92  14 1.94
  46  0.136  0.253  0.284-   7 1.91   7 1.91  15 1.94
  47  0.852  0.753  0.210-   6 1.92   6 1.92  16 1.93
  48  0.164  0.254  0.148-   5 1.92   5 1.92  17 1.94
  49  0.884  0.753  0.348-   4 1.92   4 1.92  18 1.93
  50  0.150  0.257  0.010-   3 1.91   3 1.91  30 1.95
  51  0.897  0.755  0.483-   2 1.92   2 1.92  19 1.93
  52  0.899  0.758  0.618-  20 1.91   1 1.92   1 1.93
  53  0.741  0.260  0.651-  11 1.99  91 2.00  91 2.00  20 2.01  20 2.02
  54  0.724  0.256  0.515-  12 1.93  19 1.95  19 1.95
  55  0.720  0.254  0.380-  13 1.93  18 1.95  18 1.95
  56  0.293  0.755  0.115-  14 1.95  17 1.95  17 1.95
  57  0.713  0.253  0.244-  15 1.94  16 1.95  16 1.95
  58  0.285  0.753  0.252-  16 1.94  15 1.95  15 1.95
  59  0.717  0.255  0.106-  17 1.94  14 1.95  14 1.95
  60  0.286  0.754  0.387-  18 1.94  13 1.95  13 1.95
  61  0.290  0.756  0.521-  19 1.94  12 1.95  12 1.95
  62  0.307  0.760  0.657-  91 1.80  20 1.94  11 1.97  11 1.98
  63  0.789  0.257  0.583-   1 1.94  10 1.96  10 1.96
  64  0.789  0.255  0.448-   2 1.93   9 1.95   9 1.95
  65  0.216  0.756  0.046-   8 1.95   8 1.95   3 1.95
  66  0.790  0.253  0.313-   4 1.94   7 1.95   7 1.95
  67  0.217  0.753  0.183-   5 1.94   6 1.95   6 1.95
  68  0.792  0.254  0.175-   6 1.94   5 1.95   5 1.95
  69  0.222  0.753  0.319-   7 1.94   4 1.95   4 1.95
  70  0.791  0.257  0.037-   8 1.94   3 1.95   3 1.95
  71  0.223  0.755  0.454-   9 1.94   2 1.95   2 1.95
  72  0.226  0.757  0.589-  10 1.95   1 1.95   1 1.95
  73  0.642  0.762  0.752-  26 1.92  26 1.92  22 1.95
  74  0.637  0.762  0.815-  27 1.92  27 1.93  23 1.95
  75  0.637  0.761  0.879-  28 1.93  28 1.93  24 1.95
  76  0.636  0.760  0.942-  29 1.93  29 1.93  25 1.95
  77  0.798  0.262  0.720-  21 1.90  21 1.90  26 1.98
  78  0.804  0.262  0.784-  22 1.92  22 1.92  27 1.95
  79  0.803  0.262  0.847-  23 1.92  23 1.93  28 1.95
  80  0.802  0.261  0.910-  24 1.93  24 1.93  29 1.95
  81  0.801  0.259  0.974-  25 1.93  25 1.93  30 1.96
  82  0.136  0.262  0.755-  22 1.93  22 1.93  26 1.95
  83  0.137  0.262  0.819-  23 1.93  23 1.93  27 1.95
  84  0.137  0.261  0.882-  24 1.92  24 1.93  28 1.95
  85  0.137  0.259  0.945-  25 1.93  25 1.93  29 1.96
  86  0.307  0.762  0.723-  21 1.94  26 1.94  26 1.94
  87  0.305  0.762  0.787-  27 1.93  27 1.93  22 1.95
  88  0.303  0.762  0.850-  28 1.93  28 1.93  23 1.95
  89  0.301  0.760  0.914-  29 1.92  29 1.93  24 1.96
  90  0.298  0.758  0.977-  30 1.92  30 1.92  25 1.96
  91  0.943  0.761  0.666-  62 1.80  41 1.94  53 2.00  53 2.00  42 2.33  42 2.33  20 2.73  11 2.74
                            11 2.74  21 2.78  11 2.87  11 2.87

  LATTYP: Found a triclinic cell.
 ALAT       =    68.4168895123
 B/A-ratio  =     0.0429796228
 C/A-ratio  =     0.0681632965
 COS(alpha) =     0.0000125874
 COS(beta)  =     0.0011526902
 COS(gamma) =     0.0860680778

  Lattice vectors:

 A1 = (  -0.0159462623,  -5.8847172213, -68.1633377959)
 A2 = (  -0.0000231005,  -2.9405320982,  -0.0001636209)
 A3 = (  -4.6635187437,  -0.0000218260,  -0.0043027135)

Analysis of symmetry for initial positions (statically):
 Subroutine PRICEL returns:
 Original cell was already a primitive cell.

 Routine SETGRP: Setting up the symmetry group for a
 triclinic supercell.

 Subroutine GETGRP returns: Found  1 space group operations
 (whereof  1 operations were pure point group operations)
 out of a pool of  2 trial point group operations.

The static configuration has the point symmetry C_1 .

Analysis of symmetry for dynamics (positions and initial velocities):
 Subroutine PRICEL returns:
 Original cell was already a primitive cell.

 Routine SETGRP: Setting up the symmetry group for a
 triclinic supercell.

 Subroutine GETGRP returns: Found  1 space group operations
 (whereof  1 operations were pure point group operations)
 out of a pool of  2 trial point group operations.

The dynamic configuration has the point symmetry C_1 .

Analysis of magnetic symmetry:

 Subroutine MAGSYM returns: Found  1 space group operations
 (whereof  1 operations were pure point group operations)
 out of a pool of  1 trial space group operations
 (whereof  1 operations were pure point group operations)
 and found also     1 'primitive' translations

The magnetic configuration has the point symmetry C_1 .

 irot  :   1
 isymop:   1   0   0
           0   1   0
           0   0   1

 gtrans:     0.0000000     0.0000000     0.0000000

 ptrans:     0.0000000     0.0000000     0.0000000
 rotmap:
 (   1->   1)  (   2->   2)  (   3->   3)  (   4->   4)  (   5->   5)
 (   6->   6)  (   7->   7)  (   8->   8)  (   9->   9)  (  10->  10)
 (  11->  11)  (  12->  12)  (  13->  13)  (  14->  14)  (  15->  15)
 (  16->  16)  (  17->  17)  (  18->  18)  (  19->  19)  (  20->  20)
 (  21->  21)  (  22->  22)  (  23->  23)  (  24->  24)  (  25->  25)
 (  26->  26)  (  27->  27)  (  28->  28)  (  29->  29)  (  30->  30)
 (  31->  31)  (  32->  32)  (  33->  33)  (  34->  34)  (  35->  35)
 (  36->  36)  (  37->  37)  (  38->  38)  (  39->  39)  (  40->  40)
 (  41->  41)  (  42->  42)  (  43->  43)  (  44->  44)  (  45->  45)
 (  46->  46)  (  47->  47)  (  48->  48)  (  49->  49)  (  50->  50)
 (  51->  51)  (  52->  52)  (  53->  53)  (  54->  54)  (  55->  55)
 (  56->  56)  (  57->  57)  (  58->  58)  (  59->  59)  (  60->  60)
 (  61->  61)  (  62->  62)  (  63->  63)  (  64->  64)  (  65->  65)
 (  66->  66)  (  67->  67)  (  68->  68)  (  69->  69)  (  70->  70)
 (  71->  71)  (  72->  72)  (  73->  73)  (  74->  74)  (  75->  75)
 (  76->  76)  (  77->  77)  (  78->  78)  (  79->  79)  (  80->  80)
 (  81->  81)  (  82->  82)  (  83->  83)  (  84->  84)  (  85->  85)
 (  86->  86)  (  87->  87)  (  88->  88)  (  89->  89)  (  90->  90)
 (  91->  91)

 KPOINTS: Automatic mesh

Automatic generation of k-mesh.
Space group operators:
 irot       det(A)        alpha          n_x          n_y          n_z        tau_x        tau_y        tau_z
    1     1.000000     0.000000     1.000000     0.000000     0.000000     0.000000     0.000000     0.000000

 Subroutine IBZKPT returns following result:

 Found      4 irreducible k-points:

 Following reciprocal coordinates:
            Coordinates               Weight
  0.000000  0.000000  0.000000      1.000000
  0.500000  0.000000  0.000000      1.000000
  0.000000  0.333333 -0.000000      2.000000
  0.500000  0.333333  0.000000      2.000000

 Following cartesian coordinates:
            Coordinates               Weight
  0.000000  0.000000  0.000000      1.000000
  0.107215 -0.000001 -0.000025      1.000000
 -0.000001  0.113358 -0.000006      2.000000
  0.107215  0.113357 -0.000031      2.000000

 I would recommend the setting:
   dimension x,y,z NGX =    23 NGY =   14 NGZ =  333
 SYSTEM =  unknown system
 POSCAR =  (Li2 Mn15 O30)2  (P1) ~ CONTCAR (VASP)

 Startparameter for this run:
   NWRITE =      1    write-flag & timer
   PREC   = normal    normal or accurate (medium, high low for compatibility)
   ISTART =      0    job   : 0-new  1-cont  2-samecut
   ICHARG =      2    charge: 1-file 2-atom 10-const
   ISPIN  =      2    spin polarized calculation?
   LNONCOLLINEAR =      F non collinear calculations
   LSORBIT =      F    spin-orbit coupling
   INIWAV =      1    electr: 0-lowe 1-rand  2-diag
   LASPH  =      F    aspherical Exc in radial PAW
   METAGGA=      F    non-selfconsistent MetaGGA calc.

 Electronic Relaxation 1
   ENCUT  =  400.0 eV  29.40 Ry    5.42 a.u.   7.61  4.80111.16*2*pi/ulx,y,z
   ENINI  =  400.0     initial cutoff
   ENAUG  =  500.7 eV  augmentation charge cutoff
   NELM   =     60;   NELMIN=  2; NELMDL= -5     # of ELM steps
   EDIFF  = 0.1E-03   stopping-criterion for ELM
   LREAL  =      F    real-space projection
   NLSPLINE    = F    spline interpolate recip. space projectors
   LCOMPAT=      F    compatible to vasp.4.4
   GGA_COMPAT  = T    GGA compatible to vasp.4.4-vasp.4.6
   LMAXPAW     = -100 max onsite density
   LMAXMIX     =    4 max onsite mixed and CHGCAR
   VOSKOWN=      1    Vosko Wilk Nusair interpolation
   ROPT   =    0.00000   0.00000   0.00000
[...]

 FORCES acting on ions
    electron-ion (+dipol)            ewald-force                    non-local-force                 convergence-correction
   -.195E+02 -.338E-01 0.216E+03   0.195E+02 0.319E-01 -.215E+03   -.953E-01 0.175E-02 -.455E+00   0.255E-02 0.507E-05 0.631E-01
   -.163E+02 0.186E-01 0.122E+03   0.165E+02 -.191E-01 -.121E+03   -.209E+00 0.239E-03 -.862E+00   -.348E-02 0.781E-04 0.138E+00
   0.656E+01 0.609E-01 -.382E+03   -.662E+01 -.618E-01 0.381E+03   0.491E-01 0.999E-03 0.880E+00   0.106E-01 -.844E-04 -.227E+00
   -.125E+02 0.209E-01 0.197E+02   0.126E+02 -.206E-01 -.191E+02   -.171E+00 0.532E-03 -.862E+00   -.283E-02 -.307E-03 0.170E+00
   0.131E+02 0.490E-01 -.137E+03   -.131E+02 -.487E-01 0.136E+03   -.645E-01 0.376E-03 0.931E+00   0.532E-05 -.250E-03 -.105E+00
   -.922E+01 0.276E-01 -.163E+03   0.925E+01 -.268E-01 0.164E+03   -.123E-01 -.670E-04 -.841E+00   -.600E-02 -.298E-03 -.664E-01
   0.185E+02 0.129E-01 0.644E+02   -.186E+02 -.122E-01 -.655E+02   0.492E-01 0.341E-03 0.946E+00   0.365E-02 -.413E-03 0.120E+00
   -.153E+02 0.517E-01 -.407E+03   0.152E+02 -.513E-01 0.408E+03   0.900E-01 -.151E-03 -.778E+00   -.115E-01 -.903E-04 -.201E+00
   0.176E+02 0.172E-01 0.181E+03   -.178E+02 -.176E-01 -.182E+03   0.179E+00 0.337E-03 0.918E+00   0.236E-02 -.207E-04 0.198E+00
   0.147E+02 -.115E-01 0.261E+03   -.150E+02 0.102E-01 -.262E+03   0.272E+00 0.112E-02 0.947E+00   0.915E-02 0.507E-04 0.419E-01
   0.183E+02 0.145E+00 0.272E+03   -.186E+02 -.143E+00 -.271E+03   0.263E+00 -.306E-02 -.104E+01   -.544E-02 0.279E-03 0.726E-01
   0.151E+02 0.257E-01 0.162E+03   -.153E+02 -.268E-01 -.161E+03   0.205E+00 0.835E-03 -.815E+00   0.393E-02 0.277E-04 0.101E+00
   0.128E+02 0.196E-01 0.784E+02   -.130E+02 -.203E-01 -.778E+02   0.208E+00 0.112E-02 -.864E+00   0.259E-02 -.179E-03 0.216E+00
   -.988E+01 0.465E-01 -.260E+03   0.987E+01 -.463E-01 0.259E+03   0.327E-01 0.295E-03 0.941E+00   -.160E-02 -.169E-03 -.194E+00
   0.819E+01 0.199E-01 -.592E+02   -.832E+01 -.194E-01 0.600E+02   0.124E+00 0.526E-03 -.860E+00   0.875E-03 -.405E-03 0.499E-01
   -.162E+02 0.256E-01 -.253E+02   0.162E+02 -.248E-01 0.244E+02   0.425E-01 -.104E-04 0.936E+00   -.357E-02 -.348E-03 0.682E-02
   0.119E+02 0.423E-01 -.282E+03   -.119E+02 -.421E-01 0.283E+03   -.556E-01 0.428E-03 -.813E+00   0.666E-02 -.258E-03 -.166E+00
   -.167E+02 0.125E-01 0.131E+03   0.168E+02 -.119E-01 -.132E+03   -.135E+00 0.568E-04 0.931E+00   -.391E-02 -.291E-03 0.204E+00
   -.154E+02 0.109E-01 0.221E+03   0.156E+02 -.109E-01 -.222E+03   -.208E+00 -.358E-03 0.905E+00   -.574E-02 0.147E-03 0.817E-01
   -.100E+02 -.170E+00 0.324E+03   0.968E+01 0.158E+00 -.325E+03   0.360E+00 0.119E-01 0.108E+01   -.473E-03 0.223E-04 0.595E-01
   -.105E+02 0.698E-01 0.309E+03   0.104E+02 -.647E-01 -.307E+03   0.133E+00 -.634E-02 -.141E+01   -.161E-02 0.390E-03 0.376E-01
   -.738E+00 0.185E-01 0.183E+03   0.716E+00 -.194E-01 -.183E+03   0.237E-01 -.400E-03 0.466E-01   -.760E-03 0.493E-03 -.149E-01
   -.427E+00 0.223E-01 0.945E+01   0.438E+00 -.235E-01 -.939E+01   -.954E-02 0.288E-03 -.212E-01   -.948E-03 0.281E-03 -.323E-01
   -.276E+00 0.374E-01 -.165E+03   0.282E+00 -.383E-01 0.165E+03   -.123E-01 0.137E-03 0.823E-03   0.314E-02 0.240E-03 -.752E-01
   -.248E+00 0.541E-01 -.330E+03   0.263E+00 -.549E-01 0.330E+03   -.310E-01 0.365E-03 0.461E-02   0.100E-01 0.957E-04 -.146E+00
   0.250E+01 0.376E-01 0.261E+03   -.254E+01 -.376E-01 -.261E+03   0.352E-01 -.154E-02 -.234E+00   -.133E-02 0.549E-03 -.264E-02
   0.763E+00 0.171E-01 0.983E+02   -.752E+00 -.183E-01 -.982E+02   -.117E-01 0.145E-03 -.288E-01   0.748E-03 0.349E-03 -.211E-01
   0.515E+00 0.312E-01 -.784E+02   -.528E+00 -.322E-01 0.785E+02   0.102E-01 0.107E-03 -.345E-02   0.727E-03 0.278E-03 -.505E-01
   0.996E+00 0.416E-01 -.249E+03   -.101E+01 -.426E-01 0.249E+03   0.123E-01 0.416E-03 0.298E-02   -.210E-02 0.180E-03 -.107E+00
   0.431E+01 0.495E-01 -.408E+03   -.427E+01 -.505E-01 0.408E+03   -.277E-01 0.904E-03 -.614E-01   -.500E-02 0.330E-04 -.177E+00
   0.194E+02 -.268E+00 0.287E+03   -.205E+02 0.448E+00 -.297E+03   0.113E+01 -.181E+00 0.100E+02   -.132E-01 -.149E-03 0.384E-01
   0.147E+02 -.822E-01 0.201E+03   -.135E+02 0.118E+00 -.213E+03   -.125E+01 -.359E-01 0.111E+02   0.474E-02 -.233E-04 0.108E+00
   -.221E+01 -.743E-01 -.415E+03   0.303E+00 0.116E+00 0.426E+03   0.189E+01 -.423E-01 -.106E+02   -.258E-02 0.289E-04 -.174E+00
   0.186E+02 -.650E-01 0.117E+03   -.188E+02 0.925E-01 -.127E+03   0.207E+00 -.272E-01 0.979E+01   0.422E-02 0.157E-03 0.170E+00
   -.336E+02 -.542E-01 -.218E+03   0.376E+02 0.858E-01 0.223E+03   -.398E+01 -.314E-01 -.447E+01   -.600E-02 0.178E-03 -.139E+00
   0.311E+02 0.668E-02 -.357E+02   -.351E+02 -.154E-01 0.299E+02   0.399E+01 0.893E-02 0.574E+01   0.419E-02 0.189E-03 -.294E-01
   -.256E+02 0.741E-02 -.436E+02   0.267E+02 -.150E-01 0.515E+02   -.106E+01 0.790E-02 -.795E+01   -.367E-02 0.224E-03 0.689E-01
   0.361E+02 0.756E-01 -.243E+03   -.411E+02 -.111E+00 0.238E+03   0.500E+01 0.359E-01 0.464E+01   0.186E-02 0.146E-03 -.190E+00
   -.170E+02 0.499E-01 0.583E+02   0.158E+02 -.800E-01 -.479E+02   0.118E+01 0.302E-01 -.106E+02   -.251E-02 0.936E-04 0.188E+00
   -.145E+02 0.471E-01 0.128E+03   0.129E+02 -.777E-01 -.117E+03   0.164E+01 0.304E-01 -.109E+02   -.651E-03 -.534E-04 0.723E-01
   -.295E+02 0.570E-01 0.218E+03   0.332E+02 -.116E+00 -.205E+03   -.375E+01 0.588E-01 -.132E+02   0.650E-02 -.146E-03 0.574E-01
   0.514E+01 -.145E+00 0.301E+03   -.118E+02 0.225E+00 -.306E+03   0.666E+01 -.804E-01 0.496E+01   -.148E-02 -.154E-03 0.550E-01
   -.150E+02 -.753E-01 0.237E+03   0.137E+02 0.109E+00 -.249E+03   0.128E+01 -.339E-01 0.113E+02   -.716E-03 -.202E-04 0.663E-01
   -.153E+02 -.768E-01 0.166E+03   0.144E+02 0.112E+00 -.177E+03   0.829E+00 -.357E-01 0.108E+02   -.311E-02 -.459E-05 0.184E+00
   0.327E+02 -.749E-01 -.326E+03   -.364E+02 0.119E+00 0.331E+03   0.378E+01 -.444E-01 -.476E+01   0.732E-02 0.111E-03 -.189E+00
   -.231E+02 -.296E-01 0.523E+02   0.248E+02 0.397E-01 -.606E+02   -.173E+01 -.974E-02 0.823E+01   -.438E-02 0.212E-03 0.792E-01
   0.314E+02 -.316E-01 -.122E+03   -.344E+02 0.458E-01 0.128E+03   0.301E+01 -.139E-01 -.564E+01   0.613E-02 0.161E-03 -.425E-01
   -.355E+02 0.462E-01 -.137E+03   0.407E+02 -.706E-01 0.133E+03   -.515E+01 0.245E-01 0.443E+01   -.308E-02 0.164E-03 -.130E+00
   0.195E+02 0.333E-01 0.140E+02   -.191E+02 -.561E-01 -.451E+01   -.443E+00 0.231E-01 -.969E+01   0.185E-02 0.193E-03 0.166E+00
   -.405E+02 0.933E-01 -.339E+03   0.435E+02 -.134E+00 0.333E+03   -.293E+01 0.409E-01 0.626E+01   0.201E-02 0.599E-04 -.182E+00
   0.143E+02 0.404E-01 0.917E+02   -.128E+02 -.689E-01 -.807E+02   -.155E+01 0.283E-01 -.111E+02   -.184E-02 -.293E-04 0.116E+00
   0.121E+02 0.114E+00 0.183E+03   -.944E+01 -.224E+00 -.173E+03   -.264E+01 0.110E+00 -.972E+01   0.679E-02 -.607E-04 0.488E-01
   -.166E+03 0.393E+00 0.241E+03   0.187E+03 -.550E+00 -.241E+03   -.214E+02 0.157E+00 -.104E+00   0.115E-01 -.105E-03 0.731E-01
   -.180E+03 0.412E-01 0.128E+03   0.214E+03 -.610E-01 -.121E+03   -.340E+02 0.196E-01 -.672E+01   -.212E-02 -.416E-04 0.906E-01
   -.182E+03 0.386E-01 0.552E+02   0.216E+03 -.584E-01 -.491E+02   -.341E+02 0.200E-01 -.631E+01   -.228E-02 0.134E-03 0.188E+00
   0.189E+03 0.442E-01 -.201E+03   -.223E+03 -.630E-01 0.196E+03   0.340E+02 0.189E-01 0.468E+01   0.390E-02 0.144E-03 -.169E+00
   -.188E+03 -.117E-01 -.677E+02   0.222E+03 0.121E-01 0.726E+02   -.340E+02 -.204E-05 -.492E+01   -.352E-02 0.181E-03 0.159E-01
   0.186E+03 -.136E-01 -.320E+01   -.220E+03 0.140E-01 -.214E+01   0.341E+02 -.886E-04 0.531E+01   0.375E-02 0.181E-03 0.232E-01
   -.189E+03 -.509E-01 -.262E+03   0.223E+03 0.737E-01 0.266E+03   -.340E+02 -.227E-01 -.421E+01   0.688E-03 0.129E-03 -.169E+00
   0.181E+03 -.723E-01 0.126E+03   -.215E+03 0.955E-01 -.132E+03   0.341E+02 -.230E-01 0.653E+01   0.206E-02 0.643E-04 0.186E+00
[...]
   0.142E+02 -.552E-02 0.900E+02   -.113E+02 0.987E-02 -.782E+02   -.293E+01 -.491E-02 -.118E+02   -.357E-03 -.209E-03 -.167E-01
   0.140E+02 -.317E-01 -.614E+02   -.110E+02 0.493E-01 0.730E+02   -.302E+01 -.180E-01 -.116E+02   -.239E-02 -.127E-03 -.297E-01
   0.144E+02 -.573E-01 -.209E+03   -.113E+02 0.874E-01 0.221E+03   -.313E+01 -.305E-01 -.115E+02   -.188E-02 -.987E-04 -.695E-01
   0.137E+02 -.726E-01 -.349E+03   -.101E+02 0.113E+00 0.361E+03   -.359E+01 -.401E-01 -.119E+02   0.323E-02 -.274E-04 -.136E+00
   -.143E+02 -.342E-01 0.227E+03   0.104E+02 0.508E-01 -.239E+03   0.392E+01 -.172E-01 0.118E+02   0.414E-02 -.221E-03 -.135E-01
   -.142E+02 0.900E-02 0.775E+02   0.111E+02 -.106E-01 -.890E+02   0.308E+01 0.111E-02 0.116E+02   -.125E-03 -.146E-03 -.208E-01
   -.147E+02 0.484E-01 -.730E+02   0.121E+02 -.641E-01 0.616E+02   0.255E+01 0.153E-01 0.114E+02   -.107E-02 -.120E-03 -.488E-01
   -.155E+02 0.812E-01 -.217E+03   0.134E+02 -.108E+00 0.206E+03   0.211E+01 0.262E-01 0.112E+02   -.234E-02 -.539E-04 -.102E+00
   0.107E+02 -.759E-01 0.291E+03   -.746E+01 0.120E+00 -.302E+03   -.324E+01 -.450E-01 0.109E+02   -.496E-02 -.255E-03 0.106E-01
   0.128E+02 -.142E-01 0.154E+03   -.912E+01 0.202E-01 -.166E+03   -.372E+01 -.655E-02 0.120E+02   -.146E-02 -.181E-03 -.179E-01
   0.146E+02 0.270E-01 0.172E+01   -.119E+02 -.351E-01 -.131E+02   -.275E+01 0.766E-02 0.115E+02   0.309E-03 -.143E-03 -.318E-01
   0.153E+02 0.649E-01 -.146E+03   -.129E+02 -.850E-01 0.135E+03   -.235E+01 0.198E-01 0.113E+02   0.263E-03 -.958E-04 -.732E-01
   0.174E+02 0.834E-01 -.286E+03   -.153E+02 -.113E+00 0.275E+03   -.210E+01 0.293E-01 0.116E+02   -.314E-02 0.190E-04 -.142E+00
   -.612E+01 -.792E-02 0.488E+02   0.646E+01 0.559E-02 -.491E+02   -.340E+00 0.157E-02 0.334E+00   0.332E-03 -.848E-06 0.105E-01
   -.243E+01 0.165E+00 -.880E+00   -.995E-13 -.943E-13 -.417E-11   0.243E+01 -.178E+00 0.919E+00   0.309E-02 0.429E-03 -.418E-01

 POSITION                                       TOTAL-FORCE (eV/Angst)
      0.31994      0.75862     41.17214        -0.001285     -0.000023      0.014225
      0.31046      0.75192     31.99047         0.006219     -0.000075     -0.027150
      4.49830      2.22670      1.54478        -0.003848      0.000147      0.011972
      0.27343      0.74569     22.78643         0.004368      0.000658     -0.029213
      4.52261      2.21736     10.94016        -0.010738      0.000586      0.017609
      0.19485      0.74562     13.47923         0.008826      0.000549     -0.001790
      4.46318      2.21538     20.28011        -0.011338      0.000729     -0.020993
      0.18891      0.75362      4.09083         0.010308      0.000334      0.032045
      4.42607      2.22103     29.50555        -0.006223      0.000059     -0.014785
      4.43248      2.22781     38.68219        -0.002476     -0.000049     -0.002450
      2.15349      0.76837     45.90447         0.005019     -0.000574      0.002289
      2.10115      0.75548     36.58047        -0.006838     -0.000118      0.006035
      2.09507      0.74868     27.40084        -0.004393      0.000355     -0.024429
      2.52167      2.22124      6.24248         0.014213      0.000473      0.023709
      2.13159      0.74456     18.15122        -0.005516      0.000745     -0.021758
      2.52642      2.21514     15.62122         0.012469      0.000632      0.000744
      2.19580      0.74895      8.79101        -0.005351      0.000511      0.014252
      2.60596      2.21756     24.90143         0.010428      0.000574     -0.025413
      2.64355      2.22424     34.09072         0.003523     -0.000065     -0.028409
      2.66606      2.23370     43.28521        -0.004932     -0.000101      0.004728
      4.53686      2.24194     48.16428         0.004748     -0.000739     -0.003014
      4.54008      2.24427     52.46931         0.000068     -0.000749     -0.002253
      4.53730      2.24365     56.77037         0.000979     -0.000468      0.004200
      4.53448      2.24085     61.07992        -0.002411     -0.000387      0.008396
      4.52642      2.23622     65.39974        -0.006341     -0.000160      0.010122
      2.20528      0.77330     50.31572         0.001422     -0.000854     -0.004126
      2.20526      0.77383     54.61666        -0.000094     -0.000565      0.000717
      2.20610      0.77210     58.92170        -0.001964     -0.000460      0.006462
      2.20405      0.76837     63.23633        -0.001852     -0.000301      0.010447
      2.19227      0.76303     67.55847        -0.001588      0.000069      0.018172
      1.86221      0.76103     42.37536        -0.008324     -0.000012      0.000662
      1.85937      0.75340     33.14486         0.032355     -0.000221      0.018246
      2.97748      2.22908      0.34879        -0.016123      0.000020      0.002239
      1.79576      0.74682     23.98071         0.026436      0.000512      0.000074
      3.09756      2.21881      9.63587        -0.033455      0.000464     -0.010010
      1.64358      0.74483     14.76992         0.011126      0.000544     -0.021083
      2.97310      2.21491     19.05038        -0.002004      0.000701      0.011712
      1.61910      0.75128      5.40823        -0.001118      0.000295     -0.031376
      2.88627      2.21932     28.34170         0.000181      0.000273      0.010842
      2.88389      2.22614     37.53152        -0.006257     -0.000114      0.006766
      3.03460      2.23935     46.76295         0.005755     -0.000550     -0.000041
      0.58863      0.76996     46.98108         0.007126     -0.000487      0.004654
      0.55066      0.75695     37.73410        -0.015622     -0.000118      0.008364
      0.55365      0.75017     28.56461        -0.024851      0.000035     -0.000745
      3.95351      2.22335      4.94428         0.043009      0.000248     -0.012734
      0.63904      0.74482     19.38426        -0.020549      0.000669     -0.005262
      3.97529      2.21573     14.34448         0.021552      0.000515      0.000032
      0.76587      0.74720     10.10744         0.001217      0.000504     -0.032283
      4.12824      2.21627     23.71595        -0.002178      0.000587      0.013125
      0.70003      0.75679      0.67374         0.001751      0.000121     -0.002494
      4.19300      2.22256     32.94122        -0.008248     -0.000132      0.023547
      4.20130      2.23014     42.14320        -0.000753     -0.000092     -0.001309
      3.46847      0.76760     44.40883         0.001243     -0.000665      0.005004
      3.38535      0.75400     35.13711         0.000035     -0.000159      0.011632
      3.36210      0.74733     25.93985        -0.005120      0.000467      0.005194
      1.36863      2.21960      7.81585         0.002519      0.000474     -0.018868
      3.32978      0.74458     16.62691         0.001927      0.000637      0.002291
      1.33398      2.21493     17.15248         0.000261      0.000657     -0.008581
      3.34643      0.75032      7.22884         0.006227      0.000406     -0.004171
      1.34210      2.21870     26.36610        -0.002200      0.000344     -0.001928
[...]
      3.73597      0.77201     49.06402         0.003003     -0.000725     -0.006027
      3.76414      0.77374     53.43755        -0.001577     -0.000637     -0.005186
      3.75834      0.77293     57.73851        -0.001893     -0.000422      0.002697
      3.75439      0.76993     62.05001        -0.002289     -0.000345      0.007305
      3.75139      0.76513     66.37711         0.000578     -0.000106      0.004957
      0.64662      0.77367     51.47993         0.001694     -0.000738     -0.002342
      0.65237      0.77328     55.79665         0.001238     -0.000481      0.003981
      0.65483      0.77066     60.11141        -0.001502     -0.000392      0.009903
      0.65333      0.76618     64.43521        -0.004088     -0.000184      0.012227
      1.44275      2.24321     49.30207        -0.000174     -0.000748     -0.002652
      1.43522      2.24417     53.63678        -0.000185     -0.000597      0.000522
      1.42512      2.24263     57.95429        -0.001498     -0.000434      0.007162
      1.41978      2.23907     62.27252        -0.002529     -0.000303      0.011184
      1.40843      2.23381     66.60213        -0.009232     -0.000023      0.005065
      4.41012      2.23916     45.39003        -0.000371     -0.000630     -0.008138
    total drift:                                0.003731     -0.012213     -0.002768

  FREE ENERGIE OF THE ION-ELECTRON SYSTEM (eV)
  free  energy   TOTEN  =      -641.15108722 eV

  energy  without entropy=     -641.21360253  energy(sigma->0) =     -641.17192566

 d Force = 0.5424592E-03[ 0.341E-03, 0.744E-03]  d Energy = 0.4063969E-03 0.136E-03
 d Force =-0.4646714E+00[-0.470E+00,-0.460E+00]  d Ewald  = 0.4714664E+00-0.936E+00

 reached required accuracy - stopping structural energy minimisation