 vasp.5.3.3 18Dez12 (build May 12 2016 12:04:25) complex

 executed on             LinuxIFC date 2019.03.04  17:06:38

 INCAR:
 POTCAR:   PAW_PBE Mn 06Sep2000
 POTCAR:   PAW_PBE O_s 07Sep2000
 POTCAR:    PAW_PBE Li 17Jan2003
 POTCAR:   PAW_PBE Mn 06Sep2000

 POTCAR:   PAW_PBE O_s 07Sep2000

 POTCAR:    PAW_PBE Li 17Jan2003

 PAW_PBE Mn 06Sep2000                   :
 PAW_PBE O_s 07Sep2000                  :
  PAW_PBE Li 17Jan2003                  :

 POSCAR: Li Mn30 O62  (P1) ~ CONTCAR (VASP)
  positions in direct lattice
  velocities in cartesian coordinates
 exchange correlation table for  LEXCH =        8
   RHO(1)=    0.500       N(1)  =     2000
   RHO(2)=  100.500       N(2)  =     4000

 ion  position               nearest neighbor table
   1  0.074  0.259  0.619-  52 1.89  52 1.89  31 1.91  72 1.92  72 1.92  63 1.93  10 2.91  10 2.91

   2  0.056  0.255  0.526-  51 1.89  51 1.89  32 1.92  71 1.92  71 1.93  64 1.93   9 2.91   9 2.92

[...]

  11  0.445  0.261  0.665-  62 1.92  62 1.92  53 1.92  41 1.95  41 1.95  42 1.95  93 2.41  20 2.91
                            20 2.91
  12  0.460  0.257  0.573-  40 1.89  40 1.89  43 1.91  54 1.92  61 1.92  61 1.93  19 2.91  19 2.91

[...]

  20  0.574  0.760  0.640-  31 1.88  31 1.89  52 1.90  53 1.93  53 1.93  62 1.94  11 2.91  11 2.91

  21  0.969  0.762  0.689-  78 1.91  78 1.91  42 1.93  42 1.93  88 2.01  41 2.08  93 2.66  93 2.67
                            93 2.70  93 2.70
  22  0.981  0.764  0.735-  79 1.89  79 1.89  83 1.91  83 1.91  89 1.92  73 1.94
  23  0.980  0.765  0.778-  80 1.90  80 1.90  84 1.90  84 1.90  90 1.92  74 1.93
  24  0.978  0.766  0.822-  81 1.90  81 1.90  85 1.90  85 1.90  75 1.93  91 1.93
  25  0.981  0.767  0.866-  82 1.90  82 1.90  86 1.90  86 1.90  92 1.91  76 1.95
  26  0.480  0.263  0.713-  73 1.88  73 1.88  83 1.91  88 1.99  88 1.99  78 2.04  93 2.42
  27  0.480  0.265  0.757-  74 1.89  74 1.89  89 1.90  89 1.90  84 1.92  79 1.93
  28  0.480  0.266  0.800-  75 1.90  75 1.90  90 1.90  90 1.90  80 1.93  85 1.93
  29  0.479  0.266  0.844-  76 1.89  76 1.89  91 1.90  91 1.90  86 1.93  81 1.93
  30  0.481  0.268  0.889-  87 1.87  77 1.89  77 1.90  92 1.92  92 1.92  82 1.93
  31  0.406  0.260  0.631-  20 1.88  20 1.89   1 1.91
  32  0.373  0.256  0.539-  19 1.89  19 1.89   2 1.92
  33  0.685  0.750  0.203-   3 1.91
  34  0.365  0.252  0.445-  18 1.89  18 1.89   4 1.92
  35  0.681  0.750  0.299-  17 1.90  17 1.90   5 1.92
  36  0.328  0.250  0.352-  16 1.89  16 1.89   6 1.92
  37  0.656  0.751  0.394-  15 1.89  15 1.90   7 1.91
  38  0.339  0.250  0.256-  14 1.89  14 1.89   8 1.95
  39  0.633  0.753  0.489-  13 1.89  13 1.89   9 1.90
  40  0.640  0.757  0.582-  12 1.89  12 1.89  10 1.90
  41  0.620  0.761  0.676-  11 1.95  11 1.95  21 2.08  93 2.09  93 2.09
  42  0.131  0.262  0.678-  93 1.86  21 1.93  21 1.93  11 1.95
  43  0.141  0.258  0.585-  10 1.88  10 1.89  12 1.91
  44  0.134  0.254  0.492-   9 1.89   9 1.89  13 1.92
  45  0.843  0.750  0.252-   8 1.90   8 1.90  14 1.91
  46  0.156  0.251  0.399-   7 1.89   7 1.89  15 1.92
  47  0.828  0.750  0.346-   6 1.90   6 1.90  16 1.92
  48  0.182  0.250  0.305-   5 1.90   5 1.90  17 1.93
  49  0.866  0.752  0.442-   4 1.89   4 1.89  18 1.91
  50  0.096  0.250  0.208-   3 1.90   3 1.90
  51  0.874  0.755  0.535-   2 1.89   2 1.89  19 1.90
  52  0.906  0.759  0.629-   1 1.89   1 1.89  20 1.90
  53  0.736  0.260  0.651-  11 1.92  20 1.93  20 1.93
  54  0.733  0.256  0.558-  12 1.92  19 1.93  19 1.93
  55  0.727  0.253  0.465-  13 1.93  18 1.93  18 1.93
  56  0.283  0.750  0.281-  17 1.93  17 1.93  14 1.95
  57  0.719  0.251  0.370-  16 1.93  16 1.93  15 1.94
  58  0.276  0.751  0.376-  15 1.93  15 1.93  16 1.94
  59  0.722  0.250  0.275-  14 1.93  14 1.93  17 1.93
  60  0.278  0.753  0.469-  13 1.92  13 1.93  18 1.94
  61  0.285  0.757  0.563-  12 1.92  12 1.93  19 1.94
  62  0.282  0.760  0.655-  11 1.92  11 1.92  20 1.94
  63  0.790  0.258  0.605-   1 1.93  10 1.93  10 1.93
  64  0.779  0.254  0.511-   2 1.93   9 1.93   9 1.93
  65  0.208  0.750  0.233-   8 1.93   8 1.93   3 1.94
  66  0.782  0.251  0.417-   7 1.93   7 1.93   4 1.93
  67  0.223  0.750  0.329-   6 1.93   6 1.93   5 1.95
  68  0.783  0.250  0.322-   5 1.93   5 1.93   6 1.94
  69  0.229  0.752  0.422-   4 1.92   4 1.93   7 1.94
  70  0.757  0.250  0.228-   8 1.93   3 1.94   3 1.94
  71  0.229  0.755  0.516-   2 1.92   2 1.93   9 1.94
  72  0.242  0.759  0.609-   1 1.92   1 1.92  10 1.93
  73  0.652  0.763  0.723-  26 1.88  26 1.88  22 1.94
  74  0.644  0.765  0.767-  27 1.89  27 1.89  23 1.93
  75  0.646  0.766  0.810-  28 1.90  28 1.90  24 1.93
  76  0.658  0.766  0.854-  29 1.89  29 1.89  25 1.95
  77  0.648  0.767  0.898-  30 1.89  30 1.90
  78  0.802  0.262  0.699-  93 1.83  21 1.91  21 1.91  26 2.04
  79  0.814  0.264  0.745-  22 1.89  22 1.89  27 1.93
  80  0.815  0.265  0.788-  23 1.90  23 1.90  28 1.93
  81  0.807  0.266  0.832-  24 1.90  24 1.90  29 1.93
  82  0.787  0.267  0.875-  25 1.90  25 1.90  30 1.93
  83  0.142  0.264  0.725-  26 1.91  22 1.91  22 1.91
  84  0.143  0.265  0.768-  23 1.90  23 1.90  27 1.92
  85  0.147  0.266  0.812-  24 1.90  24 1.90  28 1.93
  86  0.159  0.267  0.857-  25 1.90  25 1.90  29 1.93
  87  0.243  0.274  0.904-  30 1.87
  88  0.315  0.763  0.702-  26 1.99  26 1.99  21 2.01  93 2.02  93 2.02
  89  0.318  0.765  0.747-  27 1.90  27 1.90  22 1.92
  90  0.315  0.766  0.790-  28 1.90  28 1.90  23 1.92
  91  0.306  0.766  0.835-  29 1.90  29 1.90  24 1.93
  92  0.271  0.767  0.880-  25 1.91  30 1.92  30 1.92
  93  0.465  0.262  0.689-  78 1.83  42 1.86  88 2.02  88 2.02  41 2.09  41 2.09  11 2.41  26 2.42
                            21 2.66  21 2.67  21 2.70  21 2.70

  LATTYP: Found a simple orthorhombic cell.
 ALAT       =     2.8659999400
 B/A-ratio  =     1.5816469242
 C/A-ratio  =    34.8918360410

  Lattice vectors:

 A1 = (   0.0000000000,  -2.8659999400,   0.0000000000)
 A2 = (  -4.5329999900,   0.0000000000,   0.0000000000)
 A3 = (   0.0000000000,   0.0000000000,-100.0000000000)

Analysis of symmetry for initial positions (statically):
 Subroutine PRICEL returns:
 Original cell was already a primitive cell.

 Routine SETGRP: Setting up the symmetry group for a
 simple orthorhombic supercell.

 Subroutine GETGRP returns: Found  1 space group operations
 (whereof  1 operations were pure point group operations)
 out of a pool of  8 trial point group operations.

The static configuration has the point symmetry C_1 .

Analysis of symmetry for dynamics (positions and initial velocities):
 Subroutine PRICEL returns:
 Original cell was already a primitive cell.

 Routine SETGRP: Setting up the symmetry group for a
 simple orthorhombic supercell.

 Subroutine GETGRP returns: Found  1 space group operations
 (whereof  1 operations were pure point group operations)
 out of a pool of  8 trial point group operations.

The dynamic configuration has the point symmetry C_1 .

Analysis of magnetic symmetry:

 Subroutine MAGSYM returns: Found  1 space group operations
 (whereof  1 operations were pure point group operations)
 out of a pool of  1 trial space group operations
 (whereof  1 operations were pure point group operations)
 and found also     1 'primitive' translations

The magnetic configuration has the point symmetry C_1 .

 irot  :   1
 isymop:   1   0   0
           0   1   0
           0   0   1

 gtrans:     0.0000000     0.0000000     0.0000000

 ptrans:     0.0000000     0.0000000     0.0000000
 rotmap:
 (   1->   1)  (   2->   2)  (   3->   3)  (   4->   4)  (   5->   5)
 (   6->   6)  (   7->   7)  (   8->   8)  (   9->   9)  (  10->  10)
 (  11->  11)  (  12->  12)  (  13->  13)  (  14->  14)  (  15->  15)
 (  16->  16)  (  17->  17)  (  18->  18)  (  19->  19)  (  20->  20)
 (  21->  21)  (  22->  22)  (  23->  23)  (  24->  24)  (  25->  25)
 (  26->  26)  (  27->  27)  (  28->  28)  (  29->  29)  (  30->  30)
 (  31->  31)  (  32->  32)  (  33->  33)  (  34->  34)  (  35->  35)
 (  36->  36)  (  37->  37)  (  38->  38)  (  39->  39)  (  40->  40)
 (  41->  41)  (  42->  42)  (  43->  43)  (  44->  44)  (  45->  45)
 (  46->  46)  (  47->  47)  (  48->  48)  (  49->  49)  (  50->  50)
 (  51->  51)  (  52->  52)  (  53->  53)  (  54->  54)  (  55->  55)
 (  56->  56)  (  57->  57)  (  58->  58)  (  59->  59)  (  60->  60)
 (  61->  61)  (  62->  62)  (  63->  63)  (  64->  64)  (  65->  65)
 (  66->  66)  (  67->  67)  (  68->  68)  (  69->  69)  (  70->  70)
 (  71->  71)  (  72->  72)  (  73->  73)  (  74->  74)  (  75->  75)
 (  76->  76)  (  77->  77)  (  78->  78)  (  79->  79)  (  80->  80)
 (  81->  81)  (  82->  82)  (  83->  83)  (  84->  84)  (  85->  85)
 (  86->  86)  (  87->  87)  (  88->  88)  (  89->  89)  (  90->  90)
 (  91->  91)  (  92->  92)  (  93->  93)

 KPOINTS: Automatic mesh

Automatic generation of k-mesh.
Space group operators:
 irot       det(A)        alpha          n_x          n_y          n_z        tau_x        tau_y        tau_z
    1     1.000000     0.000000     1.000000     0.000000     0.000000     0.000000     0.000000     0.000000

 Subroutine IBZKPT returns following result:

 Found      4 irreducible k-points:

 Following reciprocal coordinates:
            Coordinates               Weight
  0.000000  0.000000  0.000000      1.000000
  0.500000  0.000000  0.000000      1.000000
  0.000000  0.333333  0.000000      2.000000
  0.500000  0.333333  0.000000      2.000000

 Following cartesian coordinates:
            Coordinates               Weight
  0.000000  0.000000  0.000000      1.000000
  0.110302  0.000000  0.000000      1.000000
  0.000000  0.116306  0.000000      2.000000
  0.110302  0.116306  0.000000      2.000000

 TETIRR: Found     15 inequivalent tetrahedra from       36

 I would recommend the setting:
   dimension x,y,z NGX =    22 NGY =   14 NGZ =  489
 SYSTEM =  unknown system
 POSCAR =  Li Mn30 O62  (P1) ~ CONTCAR (VASP)

 Startparameter for this run:
   NWRITE =      1    write-flag & timer
   PREC   = normal    normal or accurate (medium, high low for compatibility)
   ISTART =      0    job   : 0-new  1-cont  2-samecut
   ICHARG =      2    charge: 1-file 2-atom 10-const
   ISPIN  =      2    spin polarized calculation?
   LNONCOLLINEAR =      F non collinear calculations
   LSORBIT =      F    spin-orbit coupling
   INIWAV =      1    electr: 0-lowe 1-rand  2-diag
   LASPH  =      F    aspherical Exc in radial PAW
   METAGGA=      F    non-selfconsistent MetaGGA calc.

 Electronic Relaxation 1
   ENCUT  =  400.0 eV  29.40 Ry    5.42 a.u.   7.39  4.67163.07*2*pi/ulx,y,z
   ENINI  =  400.0     initial cutoff
   ENAUG  =  500.7 eV  augmentation charge cutoff
   NELM   =     60;   NELMIN=  2; NELMDL= -5     # of ELM steps
   EDIFF  = 0.1E-03   stopping-criterion for ELM
   LREAL  =      F    real-space projection
   NLSPLINE    = F    spline interpolate recip. space projectors
   LCOMPAT=      F    compatible to vasp.4.4
   GGA_COMPAT  = T    GGA compatible to vasp.4.4-vasp.4.6
   LMAXPAW     = -100 max onsite density
   LMAXMIX     =    4 max onsite mixed and CHGCAR
   VOSKOWN=      1    Vosko Wilk Nusair interpolation
   ROPT   =    0.00000   0.00000   0.00000
 Ionic relaxation
[...]

  length of vectors
     4.532999990  2.865999940100.000000000     0.220604457  0.348918360  0.010000000

 FORCES acting on ions
    electron-ion (+dipol)            ewald-force                    non-local-force                 convergence-correction
   -.955E+01 0.108E-01 -.122E+04   0.977E+01 -.116E-01 0.123E+04   -.304E+00 0.978E-03 -.874E+00   0.162E-02 0.959E-04 -.511E+01
   -.167E+02 0.725E-02 0.888E+03   0.169E+02 -.740E-02 -.890E+03   -.728E-01 0.113E-02 -.101E+01   -.257E-01 -.176E-03 0.380E+01
   0.441E+01 0.517E-01 0.754E+04   -.423E+01 -.511E-01 -.755E+04   0.231E+00 -.103E-02 0.143E+01   -.365E+00 -.561E-04 0.681E+01
   -.108E+02 0.941E-02 0.298E+04   0.110E+02 -.907E-02 -.298E+04   -.768E-01 0.174E-03 -.102E+01   -.433E-01 0.479E-05 0.466E+01
   0.132E+02 -.926E-03 0.565E+04   -.130E+02 0.106E-02 -.565E+04   -.162E+00 0.385E-04 0.106E+01   -.249E-01 0.756E-04 -.258E+01
   -.104E+02 0.737E-02 0.503E+04   0.102E+02 -.716E-02 -.502E+04   0.117E+00 0.465E-04 -.898E+00   -.170E-01 -.912E-04 -.243E+01
   0.187E+02 -.215E-02 0.361E+04   -.187E+02 0.244E-02 -.361E+04   -.571E-01 0.315E-03 0.109E+01   0.518E-01 -.128E-03 0.253E+01
   -.217E+02 0.296E-02 0.703E+04   0.218E+02 -.285E-02 -.704E+04   0.566E-01 0.183E-04 -.891E+00   -.176E+00 -.329E-04 0.542E+01
   0.146E+02 -.111E-01 0.152E+04   -.147E+02 0.123E-01 -.152E+04   0.122E+00 -.201E-03 0.112E+01   0.299E-01 -.752E-04 0.488E+01
   0.199E+02 -.101E-01 -.586E+03   -.200E+02 0.926E-02 0.588E+03   0.722E-01 0.916E-03 0.119E+01   -.425E-01 -.397E-04 -.404E+01
   0.161E+02 -.162E-01 -.227E+04   -.161E+02 0.112E-01 0.227E+04   0.130E+00 0.465E-02 0.196E+00   0.186E-01 -.134E-03 -.645E+01
   0.114E+02 0.194E-01 -.162E+03   -.115E+02 -.199E-01 0.165E+03   0.132E+00 0.101E-02 -.953E+00   0.202E-02 -.120E-04 -.138E+01
   0.126E+02 0.142E-01 0.194E+04   -.128E+02 -.144E-01 -.194E+04   0.105E+00 0.612E-03 -.102E+01   -.173E-01 0.238E-03 0.654E+01
   -.772E+00 0.109E-03 0.664E+04   0.963E+00 -.833E-04 -.664E+04   -.827E-01 0.189E-04 0.119E+01   -.128E+00 0.219E-03 -.363E+00
   0.858E+01 0.974E-02 0.401E+04   -.852E+01 -.971E-02 -.401E+04   0.182E-01 0.268E-03 -.973E+00   -.859E-01 0.413E-04 -.168E+00
   -.173E+02 -.271E-02 0.464E+04   0.172E+02 0.284E-02 -.464E+04   0.148E+00 0.211E-04 0.108E+01   0.268E-01 0.133E-03 -.198E+01
   0.156E+02 0.184E-02 0.603E+04   -.154E+02 -.157E-02 -.603E+04   -.241E+00 0.250E-03 -.787E+00   0.397E-01 -.839E-04 -.200E+01
   -.161E+02 -.829E-02 0.257E+04   0.159E+02 0.893E-02 -.257E+04   -.699E-01 -.158E-03 0.112E+01   0.912E-01 -.143E-04 0.629E+01
   -.130E+02 0.492E-02 0.470E+03   0.133E+02 -.471E-02 -.471E+03   -.837E-01 0.446E-03 0.118E+01   -.157E+00 0.125E-03 0.462E+00
   -.165E+02 -.192E-03 -.166E+04   0.169E+02 0.185E-03 0.167E+04   -.271E+00 -.179E-04 0.120E+01   -.872E-02 0.611E-04 -.578E+01
   0.404E+01 0.202E-01 -.276E+04   -.393E+01 -.179E-01 0.277E+04   -.956E-01 -.255E-02 -.219E+00   -.214E-01 -.237E-04 -.727E+01
   -.872E+00 0.381E-02 -.391E+04   0.908E+00 -.349E-02 0.392E+04   -.253E-01 0.142E-03 -.227E+00   0.427E-01 0.475E-04 -.884E+01
   -.144E+01 0.271E-02 -.512E+04   0.146E+01 -.274E-02 0.514E+04   -.168E-01 -.907E-04 -.121E+00   0.649E-02 -.196E-04 -.107E+02
   -.493E+01 0.920E-03 -.634E+04   0.491E+01 -.112E-02 0.635E+04   0.549E-01 -.198E-03 -.196E-01   -.399E-01 -.531E-04 -.106E+02
   -.747E+01 0.614E-01 -.754E+04   0.768E+01 -.597E-01 0.754E+04   0.117E+00 -.660E-03 -.221E+00   -.322E+00 -.696E-03 -.337E+01
   0.260E+01 0.747E-01 -.334E+04   -.280E+01 -.692E-01 0.335E+04   0.116E+00 -.512E-02 -.152E+01   0.109E-01 -.468E-04 -.812E+01
   0.118E+01 0.511E-02 -.451E+04   -.119E+01 -.540E-02 0.452E+04   0.108E-01 -.549E-04 -.130E+00   -.529E-01 0.549E-04 -.971E+01
   0.246E+01 -.798E-03 -.573E+04   -.251E+01 0.685E-03 0.575E+04   -.257E-02 -.101E-04 -.691E-01   0.553E-01 -.727E-05 -.111E+02
   0.705E+01 0.487E-02 -.694E+04   -.683E+01 -.520E-02 0.695E+04   -.109E+00 -.185E-03 -.399E-01   -.841E-01 0.159E-03 -.802E+01
   -.170E+02 0.111E+01 -.802E+04   0.151E+02 -.110E+01 0.802E+04   0.205E+00 -.168E-01 -.874E+00   0.142E+01 0.211E-02 0.183E+01
   0.143E+02 -.817E-01 -.121E+04   -.141E+02 0.126E+00 0.120E+04   -.109E+00 -.440E-01 0.125E+02   -.151E-01 -.681E-04 -.469E+01
   0.273E+02 -.891E-01 0.590E+03   -.306E+02 0.135E+00 -.599E+03   0.322E+01 -.450E-01 0.737E+01   -.200E-01 -.319E-03 0.171E+01
   0.123E+03 0.963E-02 0.659E+04   -.138E+03 -.435E-02 -.662E+04   0.155E+02 -.677E-02 0.223E+02   -.140E+00 0.138E-02 0.538E+01
   0.283E+02 -.538E-01 0.238E+04   -.316E+02 0.835E-01 -.239E+04   0.330E+01 -.295E-01 0.666E+01   -.654E-01 -.248E-04 0.478E+01
   -.427E+02 0.121E-01 0.503E+04   0.502E+02 -.205E-01 -.503E+04   -.748E+01 0.844E-02 -.919E+00   -.112E-01 0.117E-03 -.201E+01
   0.410E+02 -.285E-01 0.412E+04   -.490E+02 0.425E-01 -.412E+04   0.817E+01 -.134E-01 0.287E+01   -.618E-01 -.157E-03 -.190E+01
   -.344E+02 0.353E-01 0.328E+04   0.388E+02 -.562E-01 -.327E+04   -.455E+01 0.211E-01 -.506E+01   0.776E-01 -.153E-03 0.839E+00
   0.374E+02 -.502E-02 0.585E+04   -.437E+02 0.742E-02 -.586E+04   0.622E+01 -.198E-02 0.617E+01   0.542E-01 -.231E-03 0.193E+01
   -.231E+02 0.579E-01 0.147E+04   0.242E+02 -.935E-01 -.147E+04   -.128E+01 0.362E-01 -.940E+01   0.488E-01 -.185E-03 0.501E+01
   -.240E+02 0.844E-01 -.333E+03   0.246E+02 -.136E+00 0.343E+03   -.611E+00 0.515E-01 -.816E+01   0.433E-01 0.241E-03 -.213E+01
   -.452E+02 0.766E-01 -.215E+04   0.543E+02 -.113E+00 0.216E+04   -.920E+01 0.365E-01 -.480E+01   0.903E-01 0.327E-04 -.570E+01
   0.130E+02 -.950E-01 -.211E+04   -.197E+02 0.160E+00 0.210E+04   0.668E+01 -.661E-01 0.151E+02   -.942E-01 -.120E-03 -.576E+01
   -.226E+02 -.844E-01 -.306E+03   0.252E+02 0.135E+00 0.300E+03   -.269E+01 -.494E-01 0.893E+01   -.154E-01 -.439E-03 -.243E+01
   -.256E+02 -.669E-01 0.149E+04   0.280E+02 0.102E+00 -.151E+04   -.233E+01 -.354E-01 0.755E+01   0.218E-01 0.252E-03 0.484E+01
   0.286E+02 0.138E-02 0.586E+04   -.307E+02 -.305E-02 -.586E+04   0.226E+01 0.189E-02 -.729E+01   -.142E+00 -.540E-04 0.269E+01
   -.336E+02 -.387E-01 0.326E+04   0.393E+02 0.598E-01 -.326E+04   -.562E+01 -.208E-01 0.502E+01   -.660E-01 0.155E-03 0.124E+01
   0.412E+02 0.217E-01 0.416E+04   -.481E+02 -.359E-01 -.416E+04   0.677E+01 0.143E-01 -.171E+01   0.232E-01 0.179E-03 -.199E+01
   -.440E+02 -.164E-01 0.498E+04   0.530E+02 0.240E-01 -.498E+04   -.904E+01 -.740E-02 0.211E+01   -.320E-01 -.515E-04 -.212E+01
   0.266E+02 0.481E-01 0.237E+04   -.289E+02 -.777E-01 -.237E+04   0.237E+01 0.300E-01 -.822E+01   0.633E-01 -.217E-03 0.451E+01
   -.145E+03 -.431E-01 0.663E+04   0.165E+03 0.483E-01 -.666E+04   -.206E+02 -.435E-02 0.270E+02   0.968E-02 0.122E-03 0.546E+01
   0.234E+02 0.805E-01 0.572E+03   -.246E+02 -.127E+00 -.565E+03   0.131E+01 0.467E-01 -.849E+01   -.411E-01 -.291E-04 0.205E+01
   0.155E+02 0.746E-01 -.127E+04   -.132E+02 -.120E+00 0.128E+04   -.237E+01 0.461E-01 -.107E+02   0.188E-01 0.438E-04 -.466E+01
   -.176E+03 0.667E-01 -.170E+04   0.211E+03 -.954E-01 0.172E+04   -.350E+02 0.292E-01 -.775E+01   0.154E-02 -.557E-05 -.523E+01
   -.180E+03 0.664E-01 0.145E+03   0.215E+03 -.968E-01 -.138E+03   -.354E+02 0.312E-01 -.631E+01   -.123E+00 -.141E-03 -.299E+00
   -.180E+03 0.505E-01 0.194E+04   0.215E+03 -.735E-01 -.194E+04   -.351E+02 0.232E-01 -.723E+01   0.244E-02 -.245E-04 0.566E+01
   0.185E+03 -.822E-02 0.540E+04   -.220E+03 0.109E-01 -.540E+04   0.351E+02 -.276E-02 0.557E+01   0.214E+00 0.190E-03 -.144E+01
   -.185E+03 0.230E-01 0.373E+04   0.220E+03 -.350E-01 -.373E+04   -.352E+02 0.125E-01 -.516E+01   0.178E+00 -.175E-03 -.124E+01
   0.184E+03 -.305E-01 0.368E+04   -.219E+03 0.424E-01 -.368E+04   0.353E+02 -.116E-01 0.608E+01   -.198E+00 0.994E-04 -.882E+00
   -.183E+03 0.489E-02 0.546E+04   0.218E+03 -.820E-02 -.546E+04   -.353E+02 0.376E-02 -.432E+01   -.299E+00 -.251E-03 -.117E+01
   0.180E+03 -.543E-01 0.192E+04   -.215E+03 0.763E-01 -.193E+04   0.351E+02 -.213E-01 0.650E+01   0.130E-01 -.387E-03 0.575E+01
[...]
   0.130E+02 0.414E-01 -.467E+04   -.100E+02 -.582E-01 0.469E+04   -.297E+01 0.175E-01 -.128E+02   -.118E-01 -.548E-03 -.943E+01
   0.150E+02 0.229E-01 -.570E+04   -.134E+02 -.318E-01 0.572E+04   -.139E+01 0.956E-02 -.112E+02   -.131E+00 -.418E-03 -.827E+01
   0.224E+02 0.516E-01 -.669E+04   -.277E+02 -.767E-01 0.670E+04   0.544E+01 0.229E-01 -.608E+01   -.135E+00 0.300E-02 -.664E+00
   -.103E+02 -.608E-01 -.307E+04   0.422E+01 0.104E+00 0.306E+04   0.601E+01 -.435E-01 0.129E+02   0.760E-01 -.333E-03 -.727E+01
   -.123E+02 -.472E-01 -.411E+04   0.802E+01 0.687E-01 0.411E+04   0.426E+01 -.228E-01 0.128E+02   0.579E-01 0.973E-03 -.880E+01
   -.166E+02 -.276E-01 -.517E+04   0.140E+02 0.411E-01 0.516E+04   0.255E+01 -.141E-01 0.120E+02   0.325E-01 0.350E-03 -.952E+01
   -.242E+02 -.336E-01 -.621E+04   0.238E+02 0.448E-01 0.621E+04   0.297E+00 -.153E-01 0.965E+01   0.989E-01 0.343E-02 -.486E+01
   0.117E+03 0.345E+00 -.711E+04   -.133E+03 -.673E-01 0.713E+04   0.161E+02 -.284E+00 -.232E+02   0.162E+00 0.380E-02 0.250E+01
   0.190E+02 -.102E+00 -.260E+04   -.230E+02 0.155E+00 0.260E+04   0.404E+01 -.533E-01 0.314E+01   -.274E-01 -.153E-03 -.662E+01
   0.113E+02 -.602E-01 -.359E+04   -.655E+01 0.905E-01 0.358E+04   -.475E+01 -.317E-01 0.128E+02   -.258E-01 0.120E-02 -.786E+01
   0.140E+02 -.351E-01 -.464E+04   -.105E+02 0.525E-01 0.464E+04   -.349E+01 -.185E-01 0.124E+02   0.336E-01 0.561E-03 -.946E+01
   0.196E+02 -.226E-01 -.569E+04   -.181E+02 0.325E-01 0.569E+04   -.147E+01 -.100E-01 0.107E+02   0.133E-01 -.802E-04 -.788E+01
   0.392E+02 -.300E+00 -.673E+04   -.453E+02 0.377E+00 0.674E+04   0.580E+01 -.787E-01 -.523E+00   0.357E+00 0.455E-02 -.303E+00
   -.466E+00 0.187E-01 -.395E+03   0.544E+00 -.159E-01 0.396E+03   -.723E-01 -.302E-02 -.268E+00   0.115E-02 0.127E-05 -.103E+01
   0.298E+01 0.466E+00 0.180E+03   0.282E-12 0.343E-12 -.100E-10   -.360E+01 -.459E+00 -.412E+01   0.604E+00 0.978E-02 -.175E+03

 POSITION                                       TOTAL-FORCE (eV/Angst)
      0.33461      0.74152     61.90291        -0.078210      0.000047     -0.265635
      0.25284      0.73032     52.59471         0.056936      0.000616      0.266480
      4.25193      2.14857     21.77908         0.050699     -0.000656      0.242072
      0.23063      0.72170     43.24666         0.096307      0.000340      0.278141
      4.40722      2.14954     31.26644        -0.042882      0.000064     -0.249353
      0.15084      0.71712     33.81102        -0.039222     -0.000011     -0.209291
      4.35393      2.15346     40.73180         0.044126      0.000294      0.134801
      0.13147      0.71559     24.28949        -0.020678     -0.000087      0.080295
      4.31372      2.16089     50.09950         0.096662      0.000711      0.323533
      4.34979      2.17220     59.42191        -0.072845     -0.000149     -0.222866
      2.01591      0.74683     66.50375         0.110779     -0.000688     -0.275448
      2.08521      0.73589     57.26006         0.019918      0.000402     -0.050096
      2.05229      0.72549     47.92914        -0.112361      0.000391      0.443550
      2.42249      2.14874     26.50838        -0.019067      0.000082     -0.070331
      2.08879      0.71905     38.54144        -0.013394      0.000159     -0.044687
      2.41856      2.15107     36.00971         0.017561      0.000103     -0.175580
      2.14111      0.71600     29.05901         0.041897      0.000262     -0.190613
      2.50273      2.15667     45.42543        -0.098535      0.000280      0.397612
      2.52935      2.16631     54.76253        -0.027722      0.000600      0.078757
      2.60198      2.17743     64.04420         0.117513     -0.000145     -0.318442
      4.39231      2.18383     68.90228        -0.013297     -0.000389     -0.073859
      4.44804      2.18972     73.50163         0.053651      0.000328      0.072356
      4.44231      2.19336     77.84901         0.014586     -0.000324      0.027898
      4.43536      2.19571     82.21824        -0.003565     -0.000630      0.089517
      4.44475      2.19716     86.64947         0.005352      0.000126      0.006165
      2.17363      0.75429     71.33326        -0.074196      0.000159      0.063757
      2.17417      0.75877     75.67482        -0.047481     -0.000474      0.056187
      2.17378      0.76168     80.02902        -0.003083     -0.000312      0.039156
      2.17151      0.76348     84.42527         0.033540     -0.000538      0.027332
      2.18245      0.76683     88.86841        -0.228532     -0.008593      0.053508
      1.83950      0.74387     63.08531         0.104755      0.000329      0.130839
      1.68916      0.73272     53.86828        -0.039146      0.000739     -0.121604
      3.10317      2.14924     20.25613         0.027949     -0.000291     -0.023212
      1.65680      0.72331     44.53479        -0.117824      0.000030     -0.201233
      3.08662      2.14909     29.87317         0.069785      0.000000      0.103791
      1.48494      0.71789     35.19648         0.065376      0.000237      0.105384
      2.97340      2.15229     39.41029        -0.013506     -0.000031     -0.038856
      1.53613      0.71570     25.64359        -0.016965      0.000011      0.003911
      2.87034      2.15888     48.85732        -0.133247      0.000227     -0.221334
      2.90319      2.16944     58.18628         0.024453      0.000285      0.086560
      2.80842      2.18087     67.56038         0.005575      0.000105      0.045022
      0.59184      0.74998     67.83768        -0.130239     -0.001102      0.171609
      0.63840      0.73862     58.51369        -0.068498      0.000466      0.044813
      0.60828      0.72746     49.19434         0.118823      0.000184     -0.230612
      3.82136      2.14860     25.20294         0.014468     -0.000020     -0.050253
      0.70701      0.72021     39.87624         0.023799      0.000188     -0.028293
      3.75190      2.15027     34.63470        -0.071814      0.000156      0.099718
      0.82391      0.71644     30.46618        -0.074667     -0.000013      0.113275
      3.92576      2.15503     44.15710         0.107199      0.000072     -0.188598
      0.43731      0.71543     20.76579        -0.006209      0.000747     -0.041231
      3.96264      2.16383     53.51476         0.076055      0.000459     -0.095008
      4.10497      2.17502     62.87763        -0.083150      0.000165      0.152584
      3.33810      0.74482     65.11140        -0.036913      0.000289      0.167228
      3.32452      0.73372     55.78818         0.019009      0.000546      0.002273
      3.29431      0.72401     46.45453         0.037413      0.000007     -0.206007
      1.28197      2.14895     28.09419        -0.011935     -0.000081      0.062371
      3.25922      0.71824     36.99503        -0.008587      0.000094      0.037435
      1.25215      2.15185     37.56504         0.006233      0.000231      0.051378
      3.27126      0.71578     27.48987        -0.000204      0.000022      0.066126
      1.26113      2.15814     46.91608         0.023335      0.000223     -0.211319
[...]
      3.69131      0.75706     74.47975         0.041165     -0.000205     -0.047835
      3.69265      0.76058     78.83981         0.009053     -0.000061     -0.000809
      3.65706      0.76282     83.18895         0.044720      0.000062      0.032323
      3.56717      0.76414     87.53039        -0.002505      0.000517      0.043021
      0.64405      0.75628     72.46938         0.055535     -0.000803     -0.122742
      0.64889      0.76008     76.84075         0.006723     -0.000481     -0.020471
      0.66476      0.76254     81.23162         0.008108     -0.000511     -0.007410
      0.72120      0.76398     85.69882        -0.023088     -0.000881      0.041846
      1.10035      0.78531     90.39503         0.131756     -0.002893     -0.127545
      1.42650      2.18607     70.16767        -0.058648     -0.000171      0.020339
      1.44337      2.19139     74.65637        -0.022185     -0.000425     -0.022098
      1.42600      2.19447     79.03101        -0.017925     -0.000687     -0.011798
      1.38538      2.19634     83.45419         0.013446     -0.000371     -0.007064
      1.22774      2.19876     88.02762         0.035762      0.003468     -0.011928
      2.10597      0.75187     68.91205         0.007753     -0.000423     -0.039469
    total drift:                               -0.010925      0.016893     -0.017762

  FREE ENERGIE OF THE ION-ELECTRON SYSTEM (eV)
  free  energy   TOTEN  =      -643.82213269 eV

  energy  without entropy=     -643.82213269  energy(sigma->0) =     -643.82213269

 BZINTS: Fermi energy:  0.286708;583.000000 electrons
         Band energy:***********;  BLOECHL correction: -0.074236