 vasp.5.3.3 18Dez12 (build May 12 2016 12:04:25) complex

 executed on             LinuxIFC date 2019.05.18  12:25:47

 INCAR:
 POTCAR:    PAW_PBE Mn 06Sep2000
 POTCAR:    PAW_PBE O 08Apr2002
 POTCAR:    PAW_PBE Mn 06Sep2000

 POTCAR:    PAW_PBE O 08Apr2002

  PAW_PBE Mn 06Sep2000                  :
  PAW_PBE O 08Apr2002                   :

 POSCAR: (Mn O2)4  (P1) ~ POSCAR_1 (VASP)
  positions in direct lattice
  velocities in cartesian coordinates
 exchange correlation table for  LEXCH =       14
   RHO(1)=    0.500       N(1)  =     2000
   RHO(2)=  100.500       N(2)  =     4000

 ion  position               nearest neighbor table
   1  0.000  0.000  0.000-   8 1.90   7 1.90  10 1.90   9 1.90   6 1.90   5 1.90   4 2.84   4 2.84
                             3 2.84   3 2.84   2 2.84   2 2.84
   2  0.000  0.500  0.000-   6 1.90   5 1.90  12 1.90  11 1.90   8 1.90   7 1.90   3 2.84   3 2.84
                             4 2.84   4 2.84   1 2.84   1 2.84
   3  0.500  0.000  0.000-  12 1.90  11 1.90   6 1.90   5 1.90  10 1.90   9 1.90   2 2.84   2 2.84
                             1 2.84   1 2.84   4 2.84   4 2.84
   4  0.500  0.500  0.000-  10 1.90   9 1.90   8 1.90   7 1.90  12 1.90  11 1.90   1 2.84   1 2.84
                             2 2.84   2 2.84   3 2.84   3 2.84
   5  0.192  0.813  0.137-   2 1.90   3 1.90   1 1.90
   6  0.808  0.187  0.863-   2 1.90   3 1.90   1 1.90
   7  0.192  0.313  0.137-   1 1.90   4 1.90   2 1.90
   8  0.808  0.687  0.863-   1 1.90   4 1.90   2 1.90
   9  0.692  0.813  0.137-   4 1.90   1 1.90   3 1.90
  10  0.308  0.187  0.863-   4 1.90   1 1.90   3 1.90
  11  0.692  0.313  0.137-   3 1.90   2 1.90   4 1.90
  12  0.308  0.687  0.863-   3 1.90   2 1.90   4 1.90

  LATTYP: Found a triclinic cell.
 ALAT       =    15.0043745173
 B/A-ratio  =     0.9755523176
 C/A-ratio  =     1.3225027248
 COS(alpha) =     0.0030423367
 COS(beta)  =     0.5844382475
 COS(gamma) =     0.8119713297

  Lattice vectors:

 A1 = ( -14.0732455264,  -5.2027146611,   0.0823113790)
 A2 = ( -12.8004147351,   0.4604249644,   7.0848662509)
 A3 = (  -8.2158441985, -11.4431521668, -13.9753986199)

Analysis of symmetry for initial positions (statically):
 Subroutine PRICEL returns following result:

[...]

   4 primitive cells build up your supercell.

 Routine SETGRP: Setting up the symmetry group for a
 triclinic supercell.

 Subroutine GETGRP returns: Found  2 space group operations
 (whereof  2 operations were pure point group operations)
 out of a pool of  2 trial point group operations.

The static configuration has the point symmetry S_2 .

Analysis of symmetry for dynamics (positions and initial velocities):
 Subroutine PRICEL returns following result:

  LATTYP: Found a triclinic cell.
 ALAT       =     2.8357323978
 B/A-ratio  =     1.0000794810
 C/A-ratio  =     2.5332776032
 COS(alpha) =     0.0083289242
 COS(beta)  =     0.1884146271
 COS(gamma) =     0.5001283856

  Lattice vectors:

 A1 = (  -2.8350913080,  -0.0584364579,   0.0148555620)
 A2 = (  -1.4686511609,   2.4260479569,   0.0034109964)
 A3 = (  -1.3750418050,  -0.7526072538,  -7.0105884411)

   4 primitive cells build up your supercell.

 Routine SETGRP: Setting up the symmetry group for a
 triclinic supercell.

 Subroutine GETGRP returns: Found  2 space group operations
 (whereof  2 operations were pure point group operations)
 out of a pool of  2 trial point group operations.

The dynamic configuration has the point symmetry S_2 .

Analysis of magnetic symmetry:

 Subroutine MAGSYM returns: Found  2 space group operations
 (whereof  2 operations were pure point group operations)
 out of a pool of  2 trial space group operations
 (whereof  2 operations were pure point group operations)
 and found also     4 'primitive' translations

The magnetic configuration has the point symmetry S_2 .

 irot  :   1
 isymop:   1   0   0
           0   1   0
           0   0   1

 gtrans:     0.0000000     0.0000000     0.0000000

 ptrans:     0.0000000     0.0000000     0.0000000
 rotmap:
 (   1->   1)  (   2->   2)  (   3->   3)  (   4->   4)  (   5->   5)
 (   6->   6)  (   7->   7)  (   8->   8)  (   9->   9)  (  10->  10)
 (  11->  11)  (  12->  12)

[...]

 irot  :   2
 isymop:  -1   0   0
           0  -1   0
           0   0  -1

 gtrans:     0.0000000     0.0000000     0.0000000

[...]

 ptrans:     0.5000000     0.5000000     0.0000000
 rotmap:
 (   1->   4)  (   2->   3)  (   3->   2)  (   4->   1)  (   5->  12)
 (   6->  11)  (   7->  10)  (   8->   9)  (   9->   8)  (  10->   7)
 (  11->   6)  (  12->   5)

 KPOINTS: Automatic mesh

Automatic generation of k-mesh.
Space group operators:
 irot       det(A)        alpha          n_x          n_y          n_z        tau_x        tau_y        tau_z
    1     1.000000     0.000000     1.000000     0.000000     0.000000     0.000000     0.000000     0.000000
    2    -1.000000     0.000000     1.000000     0.000000     0.000000     0.000000     0.000000     0.000000

 Subroutine IBZKPT returns following result:

 Found     76 irreducible k-points:

 Following reciprocal coordinates:
            Coordinates               Weight
  0.000000  0.000000  0.000000      1.000000
  0.166667 -0.000000 -0.000000      2.000000
  0.333333 -0.000000 -0.000000      2.000000
  0.500000  0.000000  0.000000      1.000000
 -0.000000  0.166667  0.000000      2.000000
  0.166667  0.166667  0.000000      2.000000
  0.333333  0.166667 -0.000000      2.000000
  0.500000  0.166667 -0.000000      2.000000
 -0.333333  0.166667 -0.000000      2.000000
 -0.166667  0.166667  0.000000      2.000000
  0.000000  0.333333 -0.000000      2.000000
  0.166667  0.333333 -0.000000      2.000000
  0.333333  0.333333 -0.000000      2.000000
  0.500000  0.333333 -0.000000      2.000000
 -0.333333  0.333333  0.000000      2.000000
 -0.166667  0.333333  0.000000      2.000000
  0.000000  0.500000 -0.000000      1.000000
  0.166667  0.500000 -0.000000      2.000000
  0.333333  0.500000 -0.000000      2.000000
  0.500000  0.500000 -0.000000      1.000000
  0.000000 -0.000000  0.250000      2.000000
  0.166667 -0.000000  0.250000      2.000000
  0.333333 -0.000000  0.250000      2.000000
  0.500000 -0.000000  0.250000      2.000000
 -0.333333  0.000000  0.250000      2.000000
 -0.166667  0.000000  0.250000      2.000000
 -0.000000  0.166667  0.250000      2.000000
  0.166667  0.166667  0.250000      2.000000
  0.333333  0.166667  0.250000      2.000000
  0.500000  0.166667  0.250000      2.000000
 -0.333333  0.166667  0.250000      2.000000
 -0.166667  0.166667  0.250000      2.000000
 -0.000000  0.333333  0.250000      2.000000
  0.166667  0.333333  0.250000      2.000000
  0.333333  0.333333  0.250000      2.000000
  0.500000  0.333333  0.250000      2.000000
 -0.333333  0.333333  0.250000      2.000000
 -0.166667  0.333333  0.250000      2.000000
 -0.000000  0.500000  0.250000      2.000000
  0.166667  0.500000  0.250000      2.000000
  0.333333  0.500000  0.250000      2.000000
  0.500000  0.500000  0.250000      2.000000
 -0.333333  0.500000  0.250000      2.000000
 -0.166667  0.500000  0.250000      2.000000
  0.000000 -0.333333  0.250000      2.000000
  0.166667 -0.333333  0.250000      2.000000
  0.333333 -0.333333  0.250000      2.000000
  0.500000 -0.333333  0.250000      2.000000
 -0.333333 -0.333333  0.250000      2.000000
 -0.166667 -0.333333  0.250000      2.000000
  0.000000 -0.166667  0.250000      2.000000
  0.166667 -0.166667  0.250000      2.000000
  0.333333 -0.166667  0.250000      2.000000
  0.500000 -0.166667  0.250000      2.000000
 -0.333333 -0.166667  0.250000      2.000000
 -0.166667 -0.166667  0.250000      2.000000
  0.000000 -0.000000  0.500000      1.000000
  0.166667 -0.000000  0.500000      2.000000
  0.333333 -0.000000  0.500000      2.000000
  0.500000 -0.000000  0.500000      1.000000
 -0.000000  0.166667  0.500000      2.000000
  0.166667  0.166667  0.500000      2.000000
  0.333333  0.166667  0.500000      2.000000
  0.500000  0.166667  0.500000      2.000000
 -0.333333  0.166667  0.500000      2.000000
 -0.166667  0.166667  0.500000      2.000000
 -0.000000  0.333333  0.500000      2.000000
  0.166667  0.333333  0.500000      2.000000
  0.333333  0.333333  0.500000      2.000000
  0.500000  0.333333  0.500000      2.000000
 -0.333333  0.333333  0.500000      2.000000
 -0.166667  0.333333  0.500000      2.000000
 -0.000000  0.500000  0.500000      1.000000
  0.166667  0.500000  0.500000      2.000000
  0.333333  0.500000  0.500000      2.000000
  0.500000  0.500000  0.500000      1.000000

 Following cartesian coordinates:
            Coordinates               Weight
  0.000000  0.000000  0.000000      1.000000
  0.029054  0.017582  0.004301      2.000000
  0.058107  0.035164  0.008602      2.000000
  0.087161  0.052746  0.012902      1.000000
 -0.000717  0.033920 -0.003501      2.000000
  0.028336  0.051502  0.000800      2.000000
  0.057390  0.069084  0.005101      2.000000
  0.086443  0.086666  0.009402      2.000000
 -0.058825 -0.001244 -0.012102      2.000000
 -0.029771  0.016338 -0.007801      2.000000
 -0.001435  0.067840 -0.007001      2.000000
  0.027619  0.085422 -0.002701      2.000000
  0.056672  0.103004  0.001600      2.000000
  0.085726  0.120586  0.005901      2.000000
 -0.059542  0.032676 -0.015603      2.000000
 -0.030489  0.050258 -0.011302      2.000000
 -0.002152  0.101760 -0.010502      1.000000
  0.026901  0.119342 -0.006201      2.000000
  0.055955  0.136924 -0.001901      2.000000
  0.085008  0.154506  0.002400      1.000000
  0.000185  0.000062  0.035617      2.000000
  0.029239  0.017644  0.039918      2.000000
  0.058293  0.035226  0.044219      2.000000
  0.087346  0.052808  0.048520      2.000000
 -0.057922 -0.035102  0.027016      2.000000
 -0.028868 -0.017520  0.031317      2.000000
 -0.000532  0.033982  0.032117      2.000000
  0.028522  0.051564  0.036417      2.000000
  0.057575  0.069146  0.040718      2.000000
  0.086629  0.086728  0.045019      2.000000
 -0.058639 -0.001182  0.023515      2.000000
 -0.029586  0.016400  0.027816      2.000000
 -0.001250  0.067902  0.028616      2.000000
  0.027804  0.085484  0.032917      2.000000
  0.056858  0.103066  0.037217      2.000000
  0.085911  0.120648  0.041518      2.000000
 -0.059357  0.032738  0.020014      2.000000
 -0.030303  0.050320  0.024315      2.000000
 -0.001967  0.101822  0.025115      2.000000
  0.027087  0.119404  0.029416      2.000000
  0.056140  0.136986  0.033717      2.000000
  0.085194  0.154568  0.038018      2.000000
 -0.060074  0.066658  0.016514      2.000000
 -0.031021  0.084240  0.020815      2.000000
  0.001620 -0.067778  0.042619      2.000000
  0.030674 -0.050196  0.046919      2.000000
  0.059728 -0.032614  0.051220      2.000000
  0.088781 -0.015032  0.055521      2.000000
 -0.056487 -0.102942  0.034017      2.000000
 -0.027433 -0.085360  0.038318      2.000000
  0.000903 -0.033858  0.039118      2.000000
  0.029957 -0.016276  0.043419      2.000000
  0.059010  0.001306  0.047720      2.000000
  0.088064  0.018888  0.052020      2.000000
 -0.057204 -0.069022  0.030516      2.000000
 -0.028151 -0.051440  0.034817      2.000000
  0.000371  0.000124  0.071235      1.000000
[...]
 k-point 26 :  -0.1667 0.0000 0.2500  plane waves:    5281
 k-point 27 :  -0.0000 0.1667 0.2500  plane waves:    5281
 k-point 28 :   0.1667 0.1667 0.2500  plane waves:    5282
 k-point 29 :   0.3333 0.1667 0.2500  plane waves:    5262
 k-point 30 :   0.5000 0.1667 0.2500  plane waves:    5255
 k-point 31 :  -0.3333 0.1667 0.2500  plane waves:    5275
 k-point 32 :  -0.1667 0.1667 0.2500  plane waves:    5287
 k-point 33 :  -0.0000 0.3333 0.2500  plane waves:    5263
 k-point 34 :   0.1667 0.3333 0.2500  plane waves:    5249
 k-point 35 :   0.3333 0.3333 0.2500  plane waves:    5263
 k-point 36 :   0.5000 0.3333 0.2500  plane waves:    5242
 k-point 37 :  -0.3333 0.3333 0.2500  plane waves:    5265
 k-point 38 :  -0.1667 0.3333 0.2500  plane waves:    5265
 k-point 39 :  -0.0000 0.5000 0.2500  plane waves:    5259
 k-point 40 :   0.1667 0.5000 0.2500  plane waves:    5260
 k-point 41 :   0.3333 0.5000 0.2500  plane waves:    5265
 k-point 42 :   0.5000 0.5000 0.2500  plane waves:    5254
 k-point 43 :  -0.3333 0.5000 0.2500  plane waves:    5249
 k-point 44 :  -0.1667 0.5000 0.2500  plane waves:    5253
 k-point 45 :   0.0000-0.3333 0.2500  plane waves:    5264
 k-point 46 :   0.1667-0.3333 0.2500  plane waves:    5269
 k-point 47 :   0.3333-0.3333 0.2500  plane waves:    5262
 k-point 48 :   0.5000-0.3333 0.2500  plane waves:    5255
 k-point 49 :  -0.3333-0.3333 0.2500  plane waves:    5271
 k-point 50 :  -0.1667-0.3333 0.2500  plane waves:    5257
 k-point 51 :   0.0000-0.1667 0.2500  plane waves:    5280
 k-point 52 :   0.1667-0.1667 0.2500  plane waves:    5277
 k-point 53 :   0.3333-0.1667 0.2500  plane waves:    5270
 k-point 54 :   0.5000-0.1667 0.2500  plane waves:    5257
 k-point 55 :  -0.3333-0.1667 0.2500  plane waves:    5247
 k-point 56 :  -0.1667-0.1667 0.2500  plane waves:    5271
 k-point 57 :   0.0000-0.0000 0.5000  plane waves:    5270
 k-point 58 :   0.1667-0.0000 0.5000  plane waves:    5270
 k-point 59 :   0.3333-0.0000 0.5000  plane waves:    5260
 k-point 60 :   0.5000-0.0000 0.5000  plane waves:    5246
 k-point 61 :  -0.0000 0.1667 0.5000  plane waves:    5282
 k-point 62 :   0.1667 0.1667 0.5000  plane waves:    5256
 k-point 63 :   0.3333 0.1667 0.5000  plane waves:    5253
 k-point 64 :   0.5000 0.1667 0.5000  plane waves:    5242
 k-point 65 :  -0.3333 0.1667 0.5000  plane waves:    5261
 k-point 66 :  -0.1667 0.1667 0.5000  plane waves:    5275
 k-point 67 :  -0.0000 0.3333 0.5000  plane waves:    5253
 k-point 68 :   0.1667 0.3333 0.5000  plane waves:    5255
 k-point 69 :   0.3333 0.3333 0.5000  plane waves:    5271
 k-point 70 :   0.5000 0.3333 0.5000  plane waves:    5260
 k-point 71 :  -0.3333 0.3333 0.5000  plane waves:    5263
 k-point 72 :  -0.1667 0.3333 0.5000  plane waves:    5278
 k-point 73 :  -0.0000 0.5000 0.5000  plane waves:    5252
 k-point 74 :   0.1667 0.5000 0.5000  plane waves:    5252
 k-point 75 :   0.3333 0.5000 0.5000  plane waves:    5265
 k-point 76 :   0.5000 0.5000 0.5000  plane waves:    5270

 maximum and minimum number of plane-waves per node :      1353     1289

 maximum number of plane-waves:      5289
 maximum index in each direction:
   IXMAX=   10   IYMAX=   10   IZMAX=   13
   IXMIN=  -11   IYMIN=  -11   IZMIN=  -13

 WARNING: aliasing errors must be expected set NGX to  44 to avoid them
 WARNING: aliasing errors must be expected set NGY to  44 to avoid them
 WARNING: aliasing errors must be expected set NGZ to  54 to avoid them
 aliasing errors are usually negligible using standard VASP settings
 and one can safely disregard these warnings

 parallel 3D FFT for wavefunctions:
    minimum data exchange during FFTs selected (reduces bandwidth)
 parallel 3D FFT for charge:
    minimum data exchange during FFTs selected (reduces bandwidth)

 Broyden mixing: mesh for mixing (old mesh)
   NGX = 21   NGY = 21   NGZ = 27
  (NGX  = 64   NGY  = 64   NGZ  = 80)
  gives a total of  11907 points

 initial charge density was supplied:
 charge density of overlapping atoms calculated
 number of electron      76.0000000 magnetization       0.0000000
 keeping initial charge density in first step

 Maximum index for augmentation-charges          413 (set IRDMAX)

 First call to EWALD:  gamma=   0.305
 Maximum number of real-space cells 3x 3x 2
 Maximum number of reciprocal cells 3x 3x 3

 FEWALD executed in parallel

----------------------------------------- Iteration    1(   1)  ---------------------------------------

 BZINTS: Fermi energy: 18.252778; 76.000000 electrons
         Band energy: 605.492733;  BLOECHL correction: -0.112081

 eigenvalue-minimisations  : 14592
 total energy-change (2. order) : 0.1115102E+04  (-0.3284632E+04)
 number of electron      76.0000000 magnetization      -0.0000000
 augmentation part       76.0000000 magnetization      -0.0000000

 Free energy of the ion-electron system (eV)
  alpha Z        PSCENC =       194.64266676
  Ewald energy   TEWEN  =      -823.04442136
  -1/2 Hartree   DENC   =     -4203.91777435
  -exchange  EXHF       =         0.00000000
  -V(xc)+E(xc)   XCENC  =       185.07943381
  PAW double counting   =      4385.75833043    -4339.47960987
  entropy T*S    EENTRO =         0.00000000
  eigenvalues    EBANDS =       605.49273315
  atomic energy  EATOM  =      5110.57042958
  free energy    TOTEN  =      1115.10178816 eV

  energy without entropy =     1115.10178816  energy(sigma->0) =     1115.10178816

[...]

 BZINTS: Fermi energy:  5.328116; 76.000000 electrons
         Band energy:-328.406928;  BLOECHL correction: -0.176347

 eigenvalue-minimisations  : 14952
 total energy-change (2. order) :-0.9338997E+03  (-0.8897042E+03)
 number of electron      76.0000000 magnetization      -0.0000000
 augmentation part       76.0000000 magnetization      -0.0000000

[...]

 Broyden mixing:
  rms(total) = 0.56645E+01    rms(broyden)= 0.56642E+01
  rms(prec ) = 0.74992E+01
  weight for this iteration     100.00

[...]

 eigenvalues of (default mixing * dielectric matrix)
  average eigenvalue GAMMA=   0.2325
  0.2325

[...]

 eigenvalue-minimisations  : 24568
 total energy-change (2. order) :-0.4666935E-04  (-0.3716270E-03)
 number of electron      76.0000064 magnetization       0.0000000
 augmentation part       17.3525195 magnetization       0.0000000

[...]

 Broyden mixing:
  rms(total) = 0.12590E-01    rms(broyden)= 0.12589E-01
  rms(prec ) = 0.13704E-01
  weight for this iteration     100.00

 eigenvalues of (default mixing * dielectric matrix)
  average eigenvalue GAMMA=   1.1063
  2.2852  2.2852  1.1623  1.1623  0.2938  0.8140  0.6722  0.6722  0.6092

[...]

----------------------------------------- Iteration    1(  15)  ---------------------------------------

[...]

 eigenvalue-minimisations  : 11432
 total energy-change (2. order) : 0.1179084E-04  (-0.2653842E-04)
 number of electron      76.0000064 magnetization       0.0000000
 augmentation part       17.3671771 magnetization       0.0000000

 Free energy of the ion-electron system (eV)
  alpha Z        PSCENC =       194.64266676
  Ewald energy   TEWEN  =      -823.04442136
  -1/2 Hartree   DENC   =     -4223.56381967
  -exchange  EXHF       =         0.00000000
  -V(xc)+E(xc)   XCENC  =       189.84915115
  PAW double counting   =      6581.97771413    -6542.53313291
  entropy T*S    EENTRO =         0.00000000
  eigenvalues    EBANDS =      -587.70066330
  atomic energy  EATOM  =      5110.57042958
  free energy    TOTEN  =       -99.80207562 eV

  energy without entropy =      -99.80207562  energy(sigma->0) =      -99.80207562

 average (electrostatic) potential at core
  the test charge radii are     1.0210  0.7215
  (the norm of the test charge is              1.0000)
       1 -51.5609       2 -51.5609       3 -51.5609       4 -51.5609       5 -76.2149
       6 -76.2149       7 -76.2149       8 -76.2149       9 -76.2149      10 -76.2149
      11 -76.2149      12 -76.2149

 E-fermi :  -1.4641     XC(G=0):  -7.8829     alpha+bet : -6.5234

 spin component 1

 k-point   1 :       0.0000    0.0000    0.0000
  band No.  band energies     occupation
      1     -20.7164      1.00000
      2     -19.1607      1.00000
      3     -19.1446      1.00000
      4     -19.1258      1.00000
      5     -18.9229      1.00000
      6     -18.9059      1.00000
      7     -18.8941      1.00000
      8     -18.5611      1.00000
      9      -8.0393      1.00000
     10      -7.9448      1.00000
     11      -7.8163      1.00000
     12      -6.8929      1.00000
     13      -6.8454      1.00000
     14      -6.7627      1.00000
     15      -6.1601      1.00000
     16      -5.9533      1.00000
     17      -5.8914      1.00000
     18      -5.8789      1.00000
     19      -5.8778      1.00000
     20      -5.8303      1.00000
     21      -5.0480      1.00000
     22      -4.8770      1.00000
     23      -4.8312      1.00000
     24      -4.0560      1.00000
     25      -4.0275      1.00000
     26      -3.9891      1.00000
     27      -3.3440      1.00000
     28      -3.2943      1.00000
     29      -3.2261      1.00000
     30      -3.0787      1.00000
     31      -2.9879      1.00000
     32      -2.8862      1.00000
     33      -2.7648      1.00000
     34      -2.5829      1.00000
     35      -2.5708      1.00000
     36      -2.5150      1.00000
     37      -2.2103      1.00000
     38      -2.1460      1.00000
     39      -0.4571      0.00000
     40      -0.3570      0.00000
     41      -0.0640      0.00000
     42       0.1423      0.00000
     43       0.3638      0.00000
     44       0.6124      0.00000
     45       1.4417      0.00000
     46       1.4637      0.00000
     47       1.5620      0.00000
     48       1.9043      0.00000

[...]

 spin component 2

[...]

 k-point  76 :       0.5000    0.5000    0.5000
  band No.  band energies     occupation
      1     -20.0013      1.00000
      2     -20.0013      1.00000
      3     -19.1711      1.00000
      4     -19.1711      1.00000
      5     -18.8871      1.00000
      6     -18.8871      1.00000
      7     -18.7171      1.00000
      8     -18.7171      1.00000
      9      -7.1228      1.00000
     10      -7.1228      1.00000
     11      -6.9841      1.00000
     12      -6.9841      1.00000
     13      -6.9464      1.00000
     14      -6.9464      1.00000
     15      -6.3000      1.00000
     16      -6.3000      1.00000
     17      -6.1417      1.00000
     18      -6.1417      1.00000
     19      -5.6679      1.00000
     20      -5.6679      1.00000
     21      -5.2445      1.00000
     22      -5.2445      1.00000
     23      -4.9150      1.00000
     24      -4.9150      1.00000
     25      -4.6540      1.00000
     26      -4.6540      1.00000
     27      -4.0026      1.00000
     28      -4.0026      1.00000
     29      -3.3630      1.00000
     30      -3.3630      1.00000
     31      -2.6740      1.00000
     32      -2.6740      1.00000
     33      -2.2537      1.00000
     34      -2.2537      1.00000
     35      -2.0121      1.00000
     36      -2.0121      1.00000
     37      -1.8230      1.00000
     38      -1.8230      1.00000
     39      -0.2097      0.00000
     40      -0.2097      0.00000
     41       0.5325      0.00000
     42       0.5325      0.00000
     43       0.5862      0.00000
     44       0.5862      0.00000
     45       1.1121      0.00000
     46       1.1121      0.00000
     47       1.2119      0.00000
     48       1.2119      0.00000

 soft charge-density along one line, spin component           1
         0         1         2         3         4         5         6         7         8         9
 total charge-density along one line

 soft charge-density along one line, spin component           2
         0         1         2         3         4         5         6         7         8         9
 total charge-density along one line

------------------------ aborting loop because EDIFF is reached ----------------------------------------

  FORCE on cell =-STRESS in cart. coord.  units (eV):
  Direction    XX          YY          ZZ          XY          YZ          ZX
  Alpha Z   194.64267   194.64267   194.64267
  Ewald    2415.56248  2419.95436 -5658.56743    -0.17777   -12.34773   -42.19188
  Hartree  3591.32649  3592.57791 -2959.90040     0.14401   -11.04999   -34.62471
  E(xc)    -369.43170  -369.45031  -368.79299    -0.01319    -0.01243     0.00475
  Local   -7040.68120 -7045.56912  7530.72026    -0.51789    24.15511    77.87266
  n-local  -257.30511  -256.82561  -267.29367    -0.33732     0.15814     0.14338
  augment   170.68209   170.43463   177.06068     0.23323    -0.14210    -0.21745
  Kinetic  1295.02334  1294.36397  1351.93806     0.53530    -0.49955    -0.85708
  Fock        0.00000     0.00000     0.00000     0.00000     0.00000     0.00000
  Total      -0.18093     0.12849    -0.19282    -0.13362     0.26145     0.12967
  in kB      -1.48261     1.05291    -1.58003    -1.09498     2.14244     1.06261

 VOLUME and BASIS-vectors are now :
  energy-cutoff  :      520.00
  volume of cell :      195.52
      direct lattice vectors                 reciprocal lattice vectors
     5.670182616  0.116872916 -0.029711124     0.174321979  0.105492621  0.025804607
    -2.937302322  4.852095914  0.006821993    -0.004304980  0.203519938 -0.021004093
    -1.460049503  0.694170796  7.025444003     0.000741401  0.000248510  0.142469284

  length of vectors
     5.671464796  5.671915569  7.209055492     0.205384330  0.204646207  0.142471429

 FORCES acting on ions
    electron-ion (+dipol)            ewald-force                    non-local-force                 convergence-correction
   0.179E-06 -.819E-07 0.532E-06   -.176E-05 0.809E-06 -.534E-05   -.146E-21 0.178E-23 0.190E-21   0.525E-08 0.942E-09 0.811E-06
   0.179E-06 -.819E-07 0.532E-06   -.176E-05 0.809E-06 -.534E-05   -.713E-22 -.634E-22 -.440E-21   0.525E-08 0.942E-09 0.811E-06
   0.179E-06 -.819E-07 0.532E-06   -.176E-05 0.809E-06 -.534E-05   0.236E-22 -.184E-22 0.226E-21   0.525E-08 0.942E-09 0.811E-06
   0.179E-06 -.819E-07 0.532E-06   -.176E-05 0.809E-06 -.534E-05   0.255E-23 -.710E-23 -.199E-21   0.525E-08 0.942E-09 0.811E-06
   -.247E+01 -.106E+01 -.464E+03   0.253E+01 0.108E+01 0.490E+03   -.377E-01 0.598E-02 -.258E+02   -.173E-03 -.125E-03 0.293E-01
   0.247E+01 0.106E+01 0.464E+03   -.253E+01 -.108E+01 -.490E+03   0.377E-01 -.598E-02 0.258E+02   0.173E-03 0.125E-03 -.293E-01
   -.247E+01 -.106E+01 -.464E+03   0.253E+01 0.108E+01 0.490E+03   -.377E-01 0.598E-02 -.258E+02   -.173E-03 -.127E-03 0.293E-01
   0.247E+01 0.106E+01 0.464E+03   -.253E+01 -.108E+01 -.490E+03   0.377E-01 -.598E-02 0.258E+02   0.173E-03 0.127E-03 -.293E-01
   -.247E+01 -.106E+01 -.464E+03   0.253E+01 0.108E+01 0.490E+03   -.377E-01 0.598E-02 -.258E+02   -.173E-03 -.125E-03 0.293E-01
   0.247E+01 0.106E+01 0.464E+03   -.253E+01 -.108E+01 -.490E+03   0.377E-01 -.598E-02 0.258E+02   0.173E-03 0.125E-03 -.293E-01
   -.247E+01 -.106E+01 -.464E+03   0.253E+01 0.108E+01 0.490E+03   -.377E-01 0.598E-02 -.258E+02   -.173E-03 -.127E-03 0.293E-01
   0.247E+01 0.106E+01 0.464E+03   -.253E+01 -.108E+01 -.490E+03   0.377E-01 -.598E-02 0.258E+02   0.173E-03 0.127E-03 -.293E-01
   0.666E-04 -.321E-04 -.403E-03   -.275E-13 -.555E-14 -.568E-13   0.611E-15 -.737E-16 0.249E-13   0.340E-07 0.138E-07 0.718E-05

 POSITION                                       TOTAL-FORCE (eV/Angst)
      0.00000      0.00000      0.00000        -0.000000     -0.000000     -0.000000
     -1.46865      2.42605      0.00341        -0.000000     -0.000000     -0.000000
      2.83509      0.05844     -0.01486        -0.000000      0.000000     -0.000000
      1.36644      2.48448     -0.01144        -0.000000      0.000000     -0.000000
     -1.49780      4.06294      0.96033         0.017245      0.033545      0.001290
      2.77063      1.60020      6.04223        -0.017245     -0.033545     -0.001290
     -0.02915      1.63689      0.95692         0.017245      0.033545      0.001290
      1.30198      4.02625      6.04564        -0.017245     -0.033545     -0.001290
      1.33729      4.12137      0.94547         0.017245      0.033545      0.001290
     -0.06446      1.54177      6.05708        -0.017245     -0.033545     -0.001290
      2.80594      1.69533      0.94206         0.017245      0.033545      0.001290
     -1.53311      3.96781      6.06049        -0.017245     -0.033545     -0.001290
    total drift:                                0.000067     -0.000032     -0.000396

  FREE ENERGIE OF THE ION-ELECTRON SYSTEM (eV)
  free  energy   TOTEN  =       -99.80207562 eV

  energy  without entropy=      -99.80207562  energy(sigma->0) =      -99.80207562

 BZINTS: Fermi energy: -1.464115; 76.000000 electrons
         Band energy:-587.700663;  BLOECHL correction:  0.000000