 vasp.5.3.3 18Dez12 (build May 12 2016 12:04:25) complex

 executed on             LinuxIFC date 2017.03.09  13:10:28

 INCAR:
 POTCAR:    PAW_PBE Mn 06Sep2000
 POTCAR:    PAW_PBE O 08Apr2002
 POTCAR:    PAW_PBE Li 17Jan2003
 POTCAR:    PAW_PBE Mn 06Sep2000

 POTCAR:    PAW_PBE O 08Apr2002

 POTCAR:    PAW_PBE Li 17Jan2003

  PAW_PBE Mn 06Sep2000                  :
  PAW_PBE O 08Apr2002                   :
  PAW_PBE Li 17Jan2003                  :

 POSCAR: mno2
  positions in direct lattice
  velocities in cartesian coordinates
 exchange correlation table for  LEXCH =        8
   RHO(1)=    0.500       N(1)  =     2000
   RHO(2)=  100.500       N(2)  =     4000

 ion  position               nearest neighbor table
   1  0.250  0.132  0.656-  24 1.95  24 1.95  34 1.97  34 1.97  13 2.17  30 2.36  38 2.58  47 3.05
                            47 3.05   9 3.10   9 3.10
   2  0.250  0.117  0.323-  22 1.94  22 1.94  35 1.96  35 1.96  28 2.29  14 2.39  37 2.56  42 2.97
                            42 2.97  45 3.01  45 3.01   7 3.17   7 3.17
   3  0.250  0.134  0.987-  23 1.94  23 1.94  36 1.96  36 1.96  15 2.32  29 2.41  38 2.54  37 2.64
                            46 3.01  46 3.01   8 3.15   8 3.15
   4  0.250  0.627  0.510-  19 1.92  19 1.92  31 1.94  31 1.94  39 2.53  16 2.54  40 2.58
   5  0.250  0.631  0.181-  20 1.94  20 1.94  32 1.95  32 1.95  17 2.22  26 2.51  40 2.57  41 2.59
                            43 3.05  43 3.05  11 3.17  11 3.17
   6  0.250  0.651  0.845-  33 1.94  33 1.94  21 1.96  21 1.96  18 2.23  27 2.51  41 2.62  39 2.68
                            44 2.99  44 2.99
   7  0.750  0.848  0.350-  28 1.94  28 1.94  17 1.96  17 1.96  19 2.17  35 2.55  43 2.58  42 2.71
                            40 3.05  40 3.05   2 3.17   2 3.17
   8  0.750  0.867  0.017-  29 1.95  29 1.95  18 1.96  18 1.96  20 2.22  36 2.49  44 2.59  43 2.61
                            41 3.01  41 3.01   3 3.15   3 3.15
   9  0.750  0.871  0.684-  16 1.88  16 1.88  30 1.96  30 1.96  34 1.98  21 2.02  44 2.60  39 3.05
                            39 3.05   1 3.10   1 3.10
  10  0.750  0.341  0.483-  13 1.95  13 1.95  25 1.95  25 1.95  22 2.18  45 2.57  47 2.61
  11  0.750  0.365  0.150-  14 1.94  14 1.94  26 1.96  26 1.96  23 2.26  32 2.41  46 2.55  45 2.58
                            37 2.99  37 2.99   5 3.17   5 3.17
  12  0.750  0.378  0.817-  15 1.94  15 1.94  27 1.94  27 1.94  24 2.34  33 2.44  46 2.60  47 2.62
                            38 2.99  38 2.99
  13  0.250  0.293  0.563-  10 1.95  10 1.95   1 2.17  47 2.21  47 2.21
  14  0.250  0.294  0.221-  11 1.94  11 1.94  37 2.17  45 2.22  45 2.22   2 2.39
  15  0.250  0.307  0.889-  12 1.94  12 1.94  38 2.17  46 2.25  46 2.25   3 2.32
  16  0.250  0.795  0.625-   9 1.88   9 1.88  39 2.02   4 2.54
  17  0.250  0.788  0.275-   7 1.96   7 1.96   5 2.22  43 2.23  43 2.23  40 2.31
  18  0.250  0.804  0.942-   8 1.96   8 1.96   6 2.23  41 2.24  44 2.25  44 2.25
  19  0.750  0.675  0.433-   4 1.92   4 1.92  40 2.17  40 2.17   7 2.17
  20  0.750  0.698  0.107-   5 1.94   5 1.94   8 2.22  41 2.23  41 2.23  43 2.36
  21  0.750  0.725  0.773-   6 1.96   6 1.96   9 2.02  44 2.23  39 2.42  39 2.42
  22  0.750  0.184  0.394-   2 1.94   2 1.94  42 2.15  10 2.18  45 2.26
  23  0.750  0.202  0.057-   3 1.94   3 1.94  46 2.20  11 2.26  37 2.29  37 2.29
  24  0.750  0.206  0.724-   1 1.95   1 1.95  47 2.22  38 2.24  38 2.24  12 2.34
  25  0.250  0.424  0.416-  10 1.95  10 1.95  40 2.02  45 2.18  45 2.18
  26  0.250  0.445  0.080-  11 1.96  11 1.96  41 2.00  46 2.15  46 2.15   5 2.51
  27  0.250  0.460  0.750-  12 1.94  12 1.94  39 1.96  47 2.27  47 2.27   6 2.51
  28  0.250  0.935  0.410-   7 1.94   7 1.94  42 2.00  42 2.00   2 2.29
  29  0.250  0.946  0.082-   8 1.95   8 1.95  37 2.12  43 2.21  43 2.21   3 2.41
  30  0.250  0.949  0.750-   9 1.96   9 1.96  44 2.15  44 2.15  38 2.19   1 2.36
  31  0.750  0.558  0.583-   4 1.94   4 1.94  47 1.99  39 2.10  39 2.10
  32  0.750  0.544  0.246-   5 1.95   5 1.95  45 2.08  40 2.17  40 2.17  11 2.41
  33  0.750  0.564  0.909-   6 1.94   6 1.94  46 2.15  41 2.23  41 2.23  12 2.44
  34  0.750  0.026  0.607-  42 1.97   1 1.97   1 1.97   9 1.98
  35  0.750  0.048  0.251-   2 1.96   2 1.96  43 1.98  37 2.13  37 2.13   7 2.55
  36  0.750  0.060  0.918-   3 1.96   3 1.96  44 1.98  38 2.14  38 2.14   8 2.49
  37  0.250  0.112  0.157-  29 2.12  35 2.13  35 2.13  14 2.17  23 2.29  23 2.29   2 2.56   3 2.64
                            43 2.76  43 2.76  11 2.99  11 2.99
  38  0.250  0.126  0.823-  36 2.14  36 2.14  15 2.17  30 2.19  24 2.24  24 2.24   3 2.54   1 2.58
                            44 2.76  44 2.76  12 2.99  12 2.99
  39  0.250  0.613  0.674-  27 1.96  16 2.02  31 2.10  31 2.10  21 2.42  21 2.42   4 2.53   6 2.68
                            47 2.77  47 2.77   9 3.05   9 3.05
  40  0.250  0.590  0.346-  25 2.02  19 2.17  19 2.17  32 2.17  32 2.17  17 2.31   5 2.57   4 2.58
                            45 2.74  45 2.74   7 3.05   7 3.05
  41  0.250  0.613  0.014-  26 2.00  20 2.23  20 2.23  33 2.23  33 2.23  18 2.24   5 2.59   6 2.62
                            46 2.79  46 2.79   8 3.01   8 3.01
  42  0.750  0.017  0.480-  34 1.97  28 2.00  28 2.00  22 2.15   7 2.71   2 2.97   2 2.97
  43  0.750  0.889  0.185-  35 1.98  29 2.21  29 2.21  17 2.23  17 2.23  20 2.36   7 2.58   8 2.61
                            37 2.76  37 2.76   5 3.05   5 3.05
  44  0.750  0.902  0.850-  36 1.98  30 2.15  30 2.15  21 2.23  18 2.25  18 2.25   8 2.59   9 2.60
                            38 2.76  38 2.76   6 2.99   6 2.99
  45  0.750  0.371  0.317-  32 2.08  25 2.18  25 2.18  14 2.22  14 2.22  22 2.26  10 2.57  11 2.58
                            40 2.74  40 2.74   2 3.01   2 3.01
  46  0.750  0.388  0.985-  33 2.15  26 2.15  26 2.15  23 2.20  15 2.25  15 2.25  11 2.55  12 2.60
                            41 2.79  41 2.79   3 3.01   3 3.01
  47  0.750  0.390  0.648-  31 1.99  13 2.21  13 2.21  24 2.22  27 2.27  27 2.27  10 2.61  12 2.62
                            39 2.77  39 2.77   1 3.05   1 3.05

  LATTYP: Found a simple monoclinic cell.
 ALAT       =    18.9028735321
 B/A-ratio  =     0.1514264721
 C/A-ratio  =     1.3931865028
 COS(beta)  =    -0.9463164446

  Lattice vectors:

 A1 = ( -10.6676891843,   0.0000000000,  15.6050964507)
 A2 = (   0.0000000000,  -2.8623954517,   0.0000000000)
 A3 = (  21.0917672282,   0.0000000000, -15.7696418219)

Analysis of symmetry for initial positions (statically):
 Subroutine PRICEL returns:
 Original cell was already a primitive cell.

 Routine SETGRP: Setting up the symmetry group for a
 simple monoclinic supercell.

 Subroutine GETGRP returns: Found  2 space group operations
 (whereof  1 operations were pure point group operations)
 out of a pool of  4 trial point group operations.

The static configuration has the point symmetry C_1 .
 The point group associated with its full space group is C_1h.

Analysis of symmetry for dynamics (positions and initial velocities):
 Subroutine PRICEL returns:
 Original cell was already a primitive cell.

 Routine SETGRP: Setting up the symmetry group for a
 simple monoclinic supercell.

 Subroutine GETGRP returns: Found  2 space group operations
 (whereof  1 operations were pure point group operations)
 out of a pool of  4 trial point group operations.

The dynamic configuration has the point symmetry C_1 .
 The point group associated with its full space group is C_1h.

Analysis of magnetic symmetry:

 Subroutine MAGSYM returns: Found  2 space group operations
 (whereof  1 operations were pure point group operations)
 out of a pool of  2 trial space group operations
 (whereof  1 operations were pure point group operations)
 and found also     1 'primitive' translations

The magnetic configuration has the point symmetry C_1 .
 The point group associated with its full space group is C_1h.

 irot  :   1
 isymop:   1   0   0
           0   1   0
           0   0   1

 gtrans:     0.0000000     0.0000000     0.0000000

 ptrans:     0.0000000     0.0000000     0.0000000
 rotmap:
 (   1->   1)  (   2->   2)  (   3->   3)  (   4->   4)  (   5->   5)
 (   6->   6)  (   7->   7)  (   8->   8)  (   9->   9)  (  10->  10)
 (  11->  11)  (  12->  12)  (  13->  13)  (  14->  14)  (  15->  15)
 (  16->  16)  (  17->  17)  (  18->  18)  (  19->  19)  (  20->  20)
 (  21->  21)  (  22->  22)  (  23->  23)  (  24->  24)  (  25->  25)
 (  26->  26)  (  27->  27)  (  28->  28)  (  29->  29)  (  30->  30)
 (  31->  31)  (  32->  32)  (  33->  33)  (  34->  34)  (  35->  35)
 (  36->  36)  (  37->  37)  (  38->  38)  (  39->  39)  (  40->  40)
 (  41->  41)  (  42->  42)  (  43->  43)  (  44->  44)  (  45->  45)
 (  46->  46)  (  47->  47)

 irot  :   2
 isymop:  -1   0   0
           0   1   0
           0   0   1

 gtrans:    -0.5000000     0.0000000     0.0000000

 ptrans:     0.0000000     0.0000000     0.0000000
 rotmap:
 (   1->   1)  (   2->   2)  (   3->   3)  (   4->   4)  (   5->   5)
 (   6->   6)  (   7->   7)  (   8->   8)  (   9->   9)  (  10->  10)
 (  11->  11)  (  12->  12)  (  13->  13)  (  14->  14)  (  15->  15)
 (  16->  16)  (  17->  17)  (  18->  18)  (  19->  19)  (  20->  20)
 (  21->  21)  (  22->  22)  (  23->  23)  (  24->  24)  (  25->  25)
 (  26->  26)  (  27->  27)  (  28->  28)  (  29->  29)  (  30->  30)
 (  31->  31)  (  32->  32)  (  33->  33)  (  34->  34)  (  35->  35)
 (  36->  36)  (  37->  37)  (  38->  38)  (  39->  39)  (  40->  40)
 (  41->  41)  (  42->  42)  (  43->  43)  (  44->  44)  (  45->  45)
 (  46->  46)  (  47->  47)

 KPOINTS: Automatic mesh

Automatic generation of k-mesh.
Space group operators:
 irot       det(A)        alpha          n_x          n_y          n_z        tau_x        tau_y        tau_z
    1     1.000000     0.000000     1.000000     0.000000     0.000000     0.000000     0.000000     0.000000
    2    -1.000000   180.000000     0.000000     1.000000     0.000000    -0.500000     0.000000     0.000000

 Subroutine IBZKPT returns following result:

 Found     24 irreducible k-points:

 Following reciprocal coordinates:
            Coordinates               Weight
  0.000000  0.000000  0.000000      1.000000
  0.100000  0.000000  0.000000      2.000000
  0.200000  0.000000  0.000000      2.000000
  0.300000  0.000000  0.000000      2.000000
  0.400000  0.000000  0.000000      2.000000
  0.500000  0.000000  0.000000      1.000000
  0.000000  0.333333 -0.000000      2.000000
  0.100000  0.333333 -0.000000      4.000000
  0.200000  0.333333 -0.000000      4.000000
  0.300000  0.333333 -0.000000      4.000000
  0.400000  0.333333 -0.000000      4.000000
  0.500000  0.333333 -0.000000      2.000000
  0.000000 -0.000000  0.500000      1.000000
  0.100000 -0.000000  0.500000      2.000000
  0.200000 -0.000000  0.500000      2.000000
  0.300000 -0.000000  0.500000      2.000000
  0.400000 -0.000000  0.500000      2.000000
  0.500000 -0.000000  0.500000      1.000000
  0.000000  0.333333  0.500000      2.000000
  0.100000  0.333333  0.500000      4.000000
  0.200000  0.333333  0.500000      4.000000
  0.300000  0.333333  0.500000      4.000000
  0.400000  0.333333  0.500000      4.000000
  0.500000  0.333333  0.500000      2.000000

[...]
 total charge-density along one line

 soft charge-density along one line, spin component           2
         0         1         2         3         4         5         6         7         8         9
 total charge-density along one line

------------------------ aborting loop because EDIFF is reached ----------------------------------------

 total charge

# of ion     s       p       d       tot
  1        0.300   0.411   4.827   5.537
  2        0.305   0.414   4.832   5.551
  3        0.305   0.413   4.839   5.558
  4        0.308   0.409   4.828   5.545
  5        0.306   0.418   4.829   5.553
  6        0.303   0.410   4.821   5.534
  7        0.302   0.413   4.832   5.547
  8        0.304   0.413   4.834   5.551
  9        0.340   0.527   4.820   5.687
 10        0.305   0.414   4.819   5.538
 11        0.305   0.417   4.829   5.551
 12        0.308   0.417   4.836   5.561
 13        1.555   3.465   0.000   5.020
 14        1.558   3.462   0.000   5.019
 15        1.557   3.465   0.000   5.022
 16        1.571   3.404   0.000   4.975
 17        1.557   3.460   0.000   5.018
 18        1.557   3.462   0.000   5.019
 19        1.557   3.478   0.000   5.035
 20        1.556   3.470   0.000   5.026
 21        1.556   3.463   0.000   5.020
 22        1.559   3.466   0.000   5.025
 23        1.559   3.459   0.000   5.019
 24        1.558   3.466   0.000   5.024
 25        1.558   3.462   0.000   5.019
 26        1.555   3.469   0.000   5.024
 27        1.557   3.467   0.000   5.024
 28        1.556   3.479   0.000   5.035
 29        1.558   3.464   0.000   5.022
 30        1.562   3.444   0.000   5.006
 31        1.556   3.472   0.000   5.027
 32        1.558   3.465   0.000   5.023
 33        1.560   3.457   0.000   5.017
 34        1.563   3.459   0.000   5.022
 35        1.555   3.476   0.000   5.031
 36        1.555   3.478   0.000   5.033
 37        0.086   0.175   0.000   0.261
 38        0.086   0.175   0.000   0.261
 39        0.099   0.205   0.000   0.304
 40        0.089   0.185   0.000   0.274
 41        0.086   0.174   0.000   0.260
 42        0.092   0.186   0.000   0.279
 43        0.087   0.177   0.000   0.263
 44        0.091   0.188   0.000   0.279
 45        0.085   0.174   0.000   0.259
 46        0.084   0.172   0.000   0.256
 47        0.087   0.176   0.000   0.262
tot       42.056  90.175  57.948 190.179

 magnetization (x)

[...]

  FORCE on cell =-STRESS in cart. coord.  units (eV):
  Direction    XX          YY          ZZ          XY          YZ          ZX
  Alpha Z   794.44597   794.44597   794.44597
  Ewald   -4620.51928 -2170.83468 -5156.82346     0.00000    -0.00000   171.07577
  Hartree  1371.98653  2622.11029   634.58633    -0.00000     0.00000    99.57544
  E(xc)   -1156.94549 -1158.66543 -1158.01604     0.00000    -0.00000    -0.12508
  Local    -184.06522 -3757.40711  1151.25290    -0.00000     0.00000  -267.11795
  n-local  -813.68343  -766.73355  -791.07664    -0.00331    -0.00106     1.71079
  augment   542.98736   520.86638   531.82708     0.00000     0.00000    -0.55553
  Kinetic  4060.69564  3908.57800  3989.48406    -0.00956     0.00957    -4.64145
  Fock        0.00000     0.00000     0.00000     0.00000     0.00000     0.00000
  Total      -5.09792    -7.64014    -4.31980     0.00000     0.00000    -0.07802
  in kB     -17.73299   -26.57601   -15.02632     0.00000     0.00000    -0.27138

 VOLUME and BASIS-vectors are now :
  energy-cutoff  :      520.00
  volume of cell :      460.60
      direct lattice vectors                 reciprocal lattice vectors
     0.000000000  2.862395452  0.000000000     0.000000000  0.349357738  0.000000000
    10.424078044  0.000000000 -0.164545371     0.095955643  0.000000000  0.001513927
     0.243611141  0.000000000-15.440551079    -0.001022571  0.000000000 -0.064780661

  length of vectors
     2.862395452 10.425376648 15.442472730     0.349357738  0.095967585  0.064788731

 FORCES acting on ions
    electron-ion (+dipol)            ewald-force                    non-local-force                 convergence-correction
   -.631E+02 0.165E-13 -.725E+02   0.638E+02 -.293E-13 0.715E+02   -.464E+00 -.126E-19 0.309E+00   -.372E+00 0.158E-12 0.760E+00
   -.340E+02 0.182E-13 0.104E+02   0.336E+02 -.669E-14 -.107E+02   0.342E+00 0.140E-20 0.664E+00   0.339E-01 -.550E-12 -.419E+00
   -.330E+02 0.180E-13 0.380E+01   0.332E+02 -.174E-13 -.368E+01   -.298E+00 -.113E-20 0.213E+00   0.849E-01 -.143E-12 -.374E+00
   -.469E+02 -.317E-14 0.135E+02   0.459E+02 -.825E-14 -.129E+02   0.777E+00 0.514E-19 -.582E+00   0.212E+00 0.365E-14 -.690E-01
   -.212E+02 0.380E-14 0.219E+02   0.216E+02 0.157E-13 -.223E+02   -.237E+00 -.278E-20 0.444E+00   -.133E+00 -.115E-12 -.134E+00
   0.128E+02 0.204E-13 0.881E+01   -.132E+02 -.313E-13 -.105E+02   0.105E+00 0.228E-19 0.114E+01   0.288E+00 0.352E-12 0.497E+00
   0.173E+02 0.340E-13 0.416E+02   -.178E+02 -.182E-14 -.418E+02   0.407E+00 -.126E-19 0.665E+00   0.907E-01 0.155E-12 -.378E+00
   0.212E+02 0.490E-13 0.231E+02   -.213E+02 0.265E-13 -.238E+02   0.325E+00 -.190E-19 0.652E+00   -.125E+00 -.760E-12 0.403E-01
   0.289E+02 0.453E-13 -.625E+02   -.285E+02 0.486E-15 0.629E+02   0.184E+00 -.807E-19 -.934E+00   -.581E+00 0.503E-12 0.615E+00
   0.232E+02 0.381E-13 0.221E+01   -.236E+02 0.142E-13 -.140E+01   0.389E+00 0.241E-19 -.916E+00   -.464E-01 0.515E-12 0.173E+00
   0.254E+02 0.429E-13 0.738E+01   -.258E+02 -.259E-13 -.718E+01   0.319E+00 -.244E-19 0.755E-01   0.549E-01 0.579E-13 -.285E+00
   0.277E+02 0.450E-13 -.224E+02   -.277E+02 -.591E-14 0.225E+02   -.250E+00 0.385E-19 0.271E-01   0.298E+00 0.140E-12 -.113E+00
   0.833E+01 0.840E-13 0.579E+02   -.111E+02 -.849E-15 -.687E+02   0.238E+01 -.172E-20 0.901E+01   0.239E+00 -.693E-13 0.146E+01
   0.446E+02 0.801E-13 0.107E+03   -.520E+02 -.101E-13 -.118E+03   0.660E+01 -.432E-19 0.105E+02   0.646E+00 -.644E-13 0.610E+00
   0.277E+02 0.892E-13 0.825E+02   -.343E+02 0.398E-14 -.936E+02   0.581E+01 -.234E-19 0.104E+02   0.627E+00 0.508E-12 0.513E+00
   0.863E+02 0.757E-13 -.191E+03   -.943E+02 -.122E-13 0.206E+03   0.794E+01 -.484E-19 -.151E+02   0.343E-01 0.601E-12 0.184E+00
   0.106E+02 0.821E-13 -.658E+02   -.153E+02 0.188E-13 0.757E+02   0.418E+01 -.533E-21 -.878E+01   0.350E+00 -.488E-12 -.935E+00
   0.272E+02 0.696E-13 -.578E+02   -.321E+02 -.176E-13 0.673E+02   0.442E+01 -.237E-19 -.863E+01   0.385E+00 0.778E-12 -.666E+00
   -.159E+02 0.144E-12 -.608E+02   0.192E+02 0.837E-14 0.725E+02   -.308E+01 0.135E-19 -.104E+02   -.166E+00 0.418E-13 -.982E+00
   -.219E+02 0.162E-12 -.699E+02   0.272E+02 -.260E-13 0.802E+02   -.459E+01 0.117E-19 -.916E+01   -.525E+00 0.738E-13 -.977E+00
   0.293E+02 0.170E-12 -.518E+02   -.287E+02 0.175E-13 0.584E+02   -.363E+00 0.345E-19 -.644E+01   -.196E+00 0.436E-12 -.482E-02
   -.175E+02 0.149E-12 0.103E+03   0.229E+02 0.118E-13 -.114E+03   -.491E+01 -.395E-19 0.990E+01   -.378E+00 0.956E-13 0.435E+00
   -.308E+02 0.175E-12 0.903E+02   0.370E+02 -.616E-14 -.101E+03   -.567E+01 0.147E-19 0.994E+01   -.338E+00 0.627E-12 0.396E+00
   -.667E+02 0.151E-12 0.669E+02   0.740E+02 -.146E-13 -.775E+02   -.658E+01 0.221E-19 0.932E+01   -.536E+00 -.778E-13 0.102E+01
   -.607E+02 0.337E-13 -.131E+03   0.696E+02 -.643E-14 0.141E+03   -.808E+01 -.175E-18 -.899E+01   -.752E+00 -.666E-13 -.813E+00
   -.546E+02 0.361E-13 -.152E+03   0.622E+02 0.192E-13 0.162E+03   -.686E+01 0.456E-20 -.911E+01   -.592E+00 -.494E-12 -.996E+00
   -.418E+02 0.644E-13 -.172E+03   0.493E+02 0.714E-14 0.183E+03   -.718E+01 -.432E-19 -.102E+02   -.157E+00 -.171E-12 -.441E+00
   -.441E+02 0.433E-13 0.200E+03   0.499E+02 -.358E-13 -.212E+03   -.485E+01 0.189E-20 0.112E+02   -.703E+00 0.657E-13 0.557E+00
   -.569E+02 0.703E-13 0.178E+03   0.650E+02 -.141E-13 -.190E+03   -.731E+01 -.106E-18 0.108E+02   -.610E+00 -.142E-13 0.616E+00
   -.820E+02 0.443E-13 0.167E+03   0.896E+02 -.194E-13 -.177E+03   -.696E+01 -.701E-19 0.100E+02   -.484E+00 -.654E-12 0.480E+00
   0.601E+02 0.140E-12 0.118E+03   -.680E+02 -.844E-14 -.129E+03   0.719E+01 0.992E-19 0.981E+01   0.722E+00 -.324E-13 0.859E+00
   0.634E+02 0.168E-12 0.171E+03   -.718E+02 -.257E-13 -.181E+03   0.781E+01 0.340E-19 0.965E+01   0.513E+00 0.694E-13 0.568E+00
   0.770E+02 0.156E-12 0.161E+03   -.864E+02 0.479E-14 -.172E+03   0.864E+01 -.287E-20 0.103E+02   0.612E+00 -.128E-11 0.611E+00
   0.100E+02 0.158E-12 -.246E+03   -.144E+02 0.114E-13 0.260E+03   0.405E+01 0.122E-20 -.137E+02   0.163E+00 0.165E-12 -.530E-01
   0.447E+02 0.160E-12 -.145E+03   -.513E+02 0.133E-14 0.156E+03   0.596E+01 0.103E-19 -.952E+01   0.484E+00 0.932E-12 -.104E+01
   0.364E+02 0.140E-12 -.150E+03   -.432E+02 0.557E-14 0.160E+03   0.629E+01 -.535E-19 -.954E+01   0.347E+00 -.638E-13 -.839E+00
   0.639E+01 -.914E-15 0.604E+00   -.656E+01 -.122E-14 -.975E+00   0.109E+00 0.156E-21 0.384E+00   0.336E-01 -.951E-15 -.331E-01
   0.354E+01 0.290E-15 -.150E+01   -.347E+01 0.992E-15 0.120E+01   -.561E-01 0.481E-20 0.308E+00   -.110E-01 -.364E-15 -.194E-02
   0.983E+01 -.164E-14 -.344E+01   -.103E+02 -.509E-15 0.378E+01   0.299E+00 0.148E-20 -.388E+00   0.538E-01 -.229E-15 0.528E-01
   0.670E+01 -.336E-16 0.452E-01   -.707E+01 0.436E-14 -.287E+00   0.352E+00 0.440E-22 0.273E+00   0.786E-02 0.357E-15 -.279E-01
   0.726E+01 -.227E-14 -.255E+01   -.767E+01 0.301E-14 0.225E+01   0.400E+00 0.603E-20 0.349E+00   0.110E-01 0.537E-15 -.351E-01
   -.615E+00 -.631E-15 0.129E+02   0.262E+00 -.206E-14 -.126E+02   0.294E+00 0.375E-21 -.309E+00   -.126E-01 -.277E-16 0.249E-01
   -.485E+01 -.116E-14 -.134E+01   0.547E+01 -.289E-14 0.956E+00   -.591E+00 -.150E-21 0.434E+00   -.225E-01 0.390E-15 -.417E-01
   -.745E+01 0.559E-15 0.210E+01   0.803E+01 0.486E-14 -.232E+01   -.507E+00 0.637E-20 0.197E+00   -.466E-01 -.202E-14 0.141E-01
   -.461E+01 0.696E-15 0.419E+01   0.486E+01 0.464E-14 -.413E+01   -.236E+00 0.909E-21 -.362E-01   -.165E-01 0.851E-15 -.224E-01
   -.716E+01 0.244E-15 -.817E+00   0.723E+01 -.114E-15 0.572E+00   -.372E-01 -.133E-20 0.273E+00   -.935E-02 -.123E-14 -.365E-01
   -.547E+01 0.121E-14 -.150E+00   0.580E+01 -.361E-15 0.457E+00   -.380E+00 0.118E-19 -.401E+00   0.346E-01 -.119E-16 0.750E-01
   -.561E+01 0.297E-11 -.507E+01   -.422E-12 -.146E-12 0.720E-12   0.609E+01 -.369E-18 0.421E+01   -.490E+00 0.123E-11 0.846E+00

 POSITION                                       TOTAL-FORCE (eV/Angst)
      1.53773      0.71560    -10.14906        -0.079708      0.000000      0.095262
      1.30018      0.71560     -5.01003        -0.018862     -0.000000     -0.068333
      1.63635      0.71560    -15.25968         0.000831     -0.000000     -0.043194
      6.65835      0.71560     -7.97928        -0.036603      0.000000      0.004603
      6.61743      0.71560     -2.89636        -0.005790      0.000000     -0.036447
      6.98954      0.71560    -13.15747         0.007608     -0.000000     -0.025921
      8.92455      2.14680     -5.54967        -0.003883     -0.000000      0.017241
      9.04392      2.14680     -0.39944         0.021873      0.000000      0.016979
      9.24074      2.14680    -10.70107        -0.003217      0.000000      0.143459
      3.67531      2.14680     -7.51034        -0.015058      0.000000      0.063089
      3.83910      2.14680     -2.37513        -0.014447      0.000000     -0.003669
      4.14200      2.14680    -12.68217         0.029726      0.000000      0.022599
      3.19093      0.71560     -8.73935        -0.112943      0.000000     -0.275648
      3.12313      0.71560     -3.46787        -0.130507      0.000000     -0.180265
      3.42122      0.71560    -13.77345        -0.150767      0.000000     -0.190188
      8.43688      0.71560     -9.78598        -0.041154      0.000000      0.038237
      8.28195      0.71560     -4.36937        -0.170742     -0.000000      0.182946
      8.60812      0.71560    -14.68436        -0.165565     -0.000000      0.181249
      7.14038      2.14680     -6.78991         0.081118      0.000000      0.237649
      7.29787      2.14680     -1.77326         0.149764      0.000000      0.202888
      7.74266      2.14680    -12.05503         0.078573      0.000000      0.132578
      2.00983      2.14680     -6.10801         0.144876      0.000000     -0.141776
      2.11936      2.14680     -0.91132         0.166902     -0.000000     -0.168015
      2.32259      2.14680    -11.20742         0.202907      0.000000     -0.214265
      4.51938      0.71560     -6.49110         0.126382      0.000000      0.219489
      4.66183      0.71560     -1.31530         0.142847     -0.000000      0.233581
      4.97323      0.71560    -11.66080         0.130751      0.000000      0.244609
      9.84584      0.71560     -6.48930         0.222720      0.000000     -0.292143
      9.88434      0.71560     -1.41751         0.158062      0.000000     -0.254648
     10.07875      0.71560    -11.73879         0.110092     -0.000000     -0.255302
      5.96192      2.14680     -9.09495        -0.068365      0.000000     -0.276493
      5.72572      2.14680     -3.88108        -0.140144      0.000000     -0.207016
      6.10154      2.14680    -14.12854        -0.118312     -0.000000     -0.162704
      0.42133      2.14680     -9.37983        -0.131386      0.000000      0.121995
      0.56512      2.14680     -3.89105        -0.113561     -0.000000      0.296668
      0.85358      2.14680    -14.17925        -0.134744      0.000000      0.284744
      1.20965      0.71560     -2.44906        -0.027032      0.000000     -0.019318
      1.51727      0.71560    -12.72650         0.003429      0.000000      0.009344
      6.55612      0.71560    -10.50934        -0.074122      0.000000      0.008017
      6.23786      0.71560     -5.43653        -0.006625      0.000000      0.003584
      6.39557      0.71560     -0.31687         0.001555      0.000000      0.020810
      0.29860      2.14680     -7.41686        -0.070903      0.000000      0.059748
      9.30839      2.14680     -2.99976         0.013301      0.000000      0.009808
      9.61115      2.14680    -13.27357         0.025227      0.000000     -0.007909
      3.94808      2.14680     -4.95362         0.002955      0.000000      0.000238
      4.28761      2.14680    -15.27602         0.027051      0.000000     -0.009078
      4.22490      2.14680    -10.06528        -0.014110      0.000000     -0.019082
    total drift:                               -0.006338      0.000000     -0.012219

  FREE ENERGIE OF THE ION-ELECTRON SYSTEM (eV)
  free  energy   TOTEN  =      -307.70433496 eV

  energy  without entropy=     -307.70433496  energy(sigma->0) =     -307.70433496

 writing wavefunctions

 total charge

[...]

 magnetization (x)

# of ion     s       p       d       tot
  1        0.032   0.030   3.784   3.846
  2       -0.040  -0.032  -3.822  -3.895
  3        0.042   0.032   3.831   3.905
  4       -0.048  -0.028  -3.773  -3.849
  5        0.039   0.029   3.767   3.835
  6       -0.039  -0.031  -3.788  -3.859
  7        0.037   0.034   3.816   3.887
  8       -0.040  -0.034  -3.821  -3.895
  9        0.013   0.016   1.156   1.185
 10       -0.039  -0.032  -3.770  -3.842
 11        0.040   0.029   3.773   3.841
 12       -0.042  -0.029  -3.776  -3.846
 13        0.006   0.065   0.000   0.071
 14       -0.006  -0.056   0.000  -0.062
 15        0.007   0.053   0.000   0.060
 16       -0.005  -0.090   0.000  -0.095
 17        0.006  -0.011   0.000  -0.005
 18       -0.006   0.006   0.000  -0.000
 19        0.007   0.061   0.000   0.068
 20       -0.007  -0.061   0.000  -0.068
 21        0.000   0.019   0.000   0.019
 22       -0.006   0.007   0.000   0.001
 23        0.006  -0.019   0.000  -0.013
 24       -0.006  -0.067   0.000  -0.073
 25       -0.002   0.019   0.000   0.017
 26        0.002  -0.010   0.000  -0.008
 27       -0.002   0.009   0.000   0.007
 28       -0.005  -0.064   0.000  -0.069
 29        0.004   0.069   0.000   0.074
 30        0.004  -0.002   0.000   0.002
 31       -0.000   0.019   0.000   0.019
 32        0.003  -0.011   0.000  -0.008
 33       -0.003   0.010   0.000   0.006
 34       -0.001  -0.098   0.000  -0.100
 35        0.004   0.058   0.000   0.061
 36       -0.004  -0.059   0.000  -0.062
 37        0.000   0.000   0.000   0.000
 38       -0.000   0.000   0.000  -0.000
 39       -0.001  -0.002   0.000  -0.002
 40        0.001   0.001   0.000   0.001
 41       -0.000   0.000   0.000  -0.000
 42       -0.000  -0.001   0.000  -0.001
 43       -0.000  -0.000   0.000  -0.001
 44        0.000   0.001   0.000   0.001
 45       -0.000  -0.000   0.000  -0.000
 46        0.000   0.000   0.000   0.000
 47        0.000  -0.001   0.000  -0.001
tot       -0.050  -0.171  -2.625  -2.847

 BZINTS: Fermi energy:  3.253248;239.000000 electrons
         Band energy:-745.475245;  BLOECHL correction:  0.000000