 vasp.5.3.3 18Dez12 (build May 12 2016 12:04:25) complex

 executed on             LinuxIFC date 2019.05.19  20:27:55

 INCAR:
 POTCAR:    PAW_PBE O 08Apr2002
 POTCAR:    PAW_PBE Mn 06Sep2000
 POTCAR:    PAW_PBE O 08Apr2002

 POTCAR:    PAW_PBE Mn 06Sep2000

  PAW_PBE O 08Apr2002                   :
  PAW_PBE Mn 06Sep2000                  :

 POSCAR: (Mn O2)16  (P1) ~ POSCAR_3 1 0 0  surfac
  positions in direct lattice
  velocities in cartesian coordinates
 exchange correlation table for  LEXCH =       14
   RHO(1)=    0.500       N(1)  =     2000
   RHO(2)=  100.500       N(2)  =     4000

 ion  position               nearest neighbor table
   1  0.341  0.500  0.160-  44 1.60
   2  0.156  0.000  0.432-  40 1.89  40 1.89  34 1.89
   3  0.156  0.000  0.762-  41 1.89  41 1.89  35 1.90
   4  0.659  0.500  0.267-  36 1.87  38 1.94  38 1.94
   5  0.656  0.500  0.597-  39 1.89  39 1.89  37 1.90
   6  0.845  0.000  0.236-  38 1.89  36 1.90  36 1.90
   7  0.844  0.000  0.568-  37 1.89  37 1.89  39 1.90
   8  0.344  0.500  0.402-  34 1.89  34 1.89  40 1.91
   9  0.344  0.500  0.733-  35 1.89  35 1.89  41 1.90
  10  0.798  0.000  0.448-  48 1.90  48 1.90  42 1.92
  11  0.796  0.000  0.779-  49 1.89  49 1.89  43 1.90
  12  0.293  0.500  0.283-  46 1.86  46 1.86  44 2.08
  13  0.296  0.500  0.614-  47 1.89  47 1.89  45 1.90
  14  0.207  0.000  0.221-  44 1.90  44 1.90  46 1.91
  15  0.204  0.000  0.551-  45 1.89  45 1.89  47 1.90
  16  0.705  0.500  0.385-  42 1.89  42 1.89  48 1.91
  17  0.704  0.500  0.716-  43 1.89  43 1.89  49 1.90
  18  0.162  0.000  0.348-  46 1.86  40 1.88  40 1.88
  19  0.161  0.000  0.678-  47 1.85  41 1.88  41 1.88
  20  0.658  0.500  0.184-  38 1.81  38 1.81
  21  0.661  0.500  0.513-  39 1.88  39 1.88  48 1.88
  22  0.839  0.000  0.321-  42 1.85  36 1.88  36 1.88
  23  0.839  0.000  0.652-  43 1.85  37 1.88  37 1.88
  24  0.339  0.500  0.486-  45 1.87  34 1.88  34 1.88
  25  0.339  0.500  0.817-  35 1.88  35 1.88
  26  0.543  0.000  0.445-  48 1.88  48 1.88  34 1.89
  27  0.541  0.000  0.775-  35 1.88  49 1.88  49 1.88
  28  0.041  0.500  0.281-  36 1.87  46 1.90  46 1.90
  29  0.041  0.500  0.610-  37 1.88  47 1.88  47 1.88
  30  0.457  0.000  0.227-  44 1.88  44 1.88  38 1.92
  31  0.459  0.000  0.555-  39 1.88  45 1.88  45 1.88
  32  0.960  0.500  0.388-  40 1.85  42 1.88  42 1.88
  33  0.959  0.500  0.720-  41 1.88  43 1.88  43 1.88
  34  0.348  0.000  0.445-  24 1.88  24 1.88  26 1.89   8 1.89   8 1.89   2 1.89  40 2.88  40 2.88

  35  0.348  0.000  0.775-  27 1.88  25 1.88  25 1.88   9 1.89   9 1.89   3 1.90  41 2.87  41 2.87

[...]

  49  0.668  0.500  0.780-  27 1.88  27 1.88  11 1.89  11 1.89  17 1.90  43 2.87  43 2.87

  LATTYP: Found a simple orthorhombic cell.
 ALAT       =     2.8413000000
 B/A-ratio  =     3.4120261852
 C/A-ratio  =    10.3466019076

  Lattice vectors:

 A1 = (   0.0000000000,  -2.8413000000,   0.0000000000)
 A2 = (  -9.6945900000,   0.0000000000,   0.0000000000)
 A3 = (   0.0000000000,   0.0000000000, -29.3978000000)

Analysis of symmetry for initial positions (statically):
 Subroutine PRICEL returns:
 Original cell was already a primitive cell.

 Routine SETGRP: Setting up the symmetry group for a
 simple orthorhombic supercell.

 Subroutine GETGRP returns: Found  2 space group operations
 (whereof  2 operations were pure point group operations)
 out of a pool of  8 trial point group operations.

The static configuration has the point symmetry C_1h.

Analysis of symmetry for dynamics (positions and initial velocities):
 Subroutine PRICEL returns:
 Original cell was already a primitive cell.

[...]

The dynamic configuration has the point symmetry C_1h.

Analysis of constrained symmetry for selective dynamics:
 Subroutine PRICEL returns:
 Original cell was already a primitive cell.

 Routine SETGRP: Setting up the symmetry group for a
 simple orthorhombic supercell.

 Subroutine GETGRP returns: Found  2 space group operations
 (whereof  2 operations were pure point group operations)
 out of a pool of  8 trial point group operations.

The constrained configuration has the point symmetry C_1h.

Analysis of magnetic symmetry:

 Subroutine MAGSYM returns: Found  2 space group operations
 (whereof  2 operations were pure point group operations)
 out of a pool of  2 trial space group operations
 (whereof  2 operations were pure point group operations)
 and found also     1 'primitive' translations

The magnetic configuration has the point symmetry C_1h.

 irot  :   1
 isymop:   1   0   0
           0   1   0
           0   0   1

 gtrans:     0.0000000     0.0000000     0.0000000

 ptrans:     0.0000000     0.0000000     0.0000000
 rotmap:
 (   1->   1)  (   2->   2)  (   3->   3)  (   4->   4)  (   5->   5)
 (   6->   6)  (   7->   7)  (   8->   8)  (   9->   9)  (  10->  10)
 (  11->  11)  (  12->  12)  (  13->  13)  (  14->  14)  (  15->  15)
 (  16->  16)  (  17->  17)  (  18->  18)  (  19->  19)  (  20->  20)
 (  21->  21)  (  22->  22)  (  23->  23)  (  24->  24)  (  25->  25)
 (  26->  26)  (  27->  27)  (  28->  28)  (  29->  29)  (  30->  30)
 (  31->  31)  (  32->  32)  (  33->  33)  (  34->  34)  (  35->  35)
 (  36->  36)  (  37->  37)  (  38->  38)  (  39->  39)  (  40->  40)
 (  41->  41)  (  42->  42)  (  43->  43)  (  44->  44)  (  45->  45)
 (  46->  46)  (  47->  47)  (  48->  48)  (  49->  49)

 irot  :   2
 isymop:   1   0   0
           0  -1   0
           0   0   1

 gtrans:     0.0000000     0.0000000     0.0000000

 ptrans:     0.0000000     0.0000000     0.0000000
 rotmap:
 (   1->   1)  (   2->   2)  (   3->   3)  (   4->   4)  (   5->   5)
 (   6->   6)  (   7->   7)  (   8->   8)  (   9->   9)  (  10->  10)
 (  11->  11)  (  12->  12)  (  13->  13)  (  14->  14)  (  15->  15)
 (  16->  16)  (  17->  17)  (  18->  18)  (  19->  19)  (  20->  20)
 (  21->  21)  (  22->  22)  (  23->  23)  (  24->  24)  (  25->  25)
 (  26->  26)  (  27->  27)  (  28->  28)  (  29->  29)  (  30->  30)
 (  31->  31)  (  32->  32)  (  33->  33)  (  34->  34)  (  35->  35)
 (  36->  36)  (  37->  37)  (  38->  38)  (  39->  39)  (  40->  40)
 (  41->  41)  (  42->  42)  (  43->  43)  (  44->  44)  (  45->  45)
 (  46->  46)  (  47->  47)  (  48->  48)  (  49->  49)

 KPOINTS: Automatic mesh

Automatic generation of k-mesh.
Space group operators:
 irot       det(A)        alpha          n_x          n_y          n_z        tau_x        tau_y        tau_z
    1     1.000000     0.000000     1.000000     0.000000     0.000000     0.000000     0.000000     0.000000
    2    -1.000000   180.000000     0.000000     1.000000     0.000000     0.000000     0.000000     0.000000

 Subroutine IBZKPT returns following result:

 Found     10 irreducible k-points:

 Following reciprocal coordinates:
            Coordinates               Weight
  0.000000  0.000000  0.000000      1.000000
  0.333333  0.000000  0.000000      2.000000
  0.000000  0.111111  0.000000      2.000000
  0.333333  0.111111  0.000000      4.000000
  0.000000  0.222222  0.000000      2.000000
  0.333333  0.222222  0.000000      4.000000
  0.000000  0.333333  0.000000      2.000000
  0.333333  0.333333  0.000000      4.000000
  0.000000  0.444444  0.000000      2.000000
  0.333333  0.444444  0.000000      4.000000

 Following cartesian coordinates:
            Coordinates               Weight
  0.000000  0.000000  0.000000      1.000000
  0.034383  0.000000  0.000000      2.000000
  0.000000  0.039106  0.000000      2.000000
  0.034383  0.039106  0.000000      4.000000
  0.000000  0.078211  0.000000      2.000000
  0.034383  0.078211  0.000000      4.000000
  0.000000  0.117317  0.000000      2.000000
  0.034383  0.117317  0.000000      4.000000
  0.000000  0.156423  0.000000      2.000000
  0.034383  0.156423  0.000000      4.000000

 TETIRR: Found     64 inequivalent tetrahedra from      162

 I would recommend the setting:
   dimension x,y,z NGX =    54 NGY =   16 NGZ =  164
 SYSTEM =  (Mn O2)16  (P1) ~ POSCAR_3 1 0 0  surfa
 POSCAR =  (Mn O2)16  (P1) ~ POSCAR_3 1 0 0  surfac

 Startparameter for this run:
   NWRITE =      1    write-flag & timer
   PREC   = normal    normal or accurate (medium, high low for compatibility)
   ISTART =      0    job   : 0-new  1-cont  2-samecut
   ICHARG =      2    charge: 1-file 2-atom 10-const
   ISPIN  =      2    spin polarized calculation?
   LNONCOLLINEAR =      F non collinear calculations
   LSORBIT =      F    spin-orbit coupling
   INIWAV =      1    electr: 0-lowe 1-rand  2-diag
   LASPH  =      F    aspherical Exc in radial PAW
   METAGGA=      F    non-selfconsistent MetaGGA calc.

 Electronic Relaxation 1
   ENCUT  =  520.0 eV  38.22 Ry    6.18 a.u.  18.03  5.28 54.66*2*pi/ulx,y,z
   ENINI  =  520.0     initial cutoff
   ENAUG  =  605.4 eV  augmentation charge cutoff
   NELM   =     60;   NELMIN=  2; NELMDL= -5     # of ELM steps
   EDIFF  = 0.1E-03   stopping-criterion for ELM
   LREAL  =      F    real-space projection
   NLSPLINE    = F    spline interpolate recip. space projectors
   LCOMPAT=      F    compatible to vasp.4.4
   GGA_COMPAT  = T    GGA compatible to vasp.4.4-vasp.4.6
   LMAXPAW     = -100 max onsite density
   LMAXMIX     =    2 max onsite mixed and CHGCAR
   VOSKOWN=      1    Vosko Wilk Nusair interpolation
   ROPT   =    0.00000   0.00000
 Ionic relaxation
   EDIFFG = 0.1E-02   stopping-criterion for IOM
   NSW    =      0    number of steps for IOM
   NBLOCK =      1;   KBLOCK =      1    inner block; outer block
   IBRION =     -1    ionic relax: 0-MD 1-quasi-New 2-CG
   NFREE  =      0    steps in history (QN), initial steepest desc. (CG)
   ISIF   =      2    stress and relaxation
   IWAVPR =     10    prediction:  0-non 1-charg 2-wave 3-comb
   ISYM   =      2    0-nonsym 1-usesym 2-fastsym
   LCORR  =      T    Harris-Foulkes like correction to forces

   POTIM  = 0.5000    time-step for ionic-motion
   TEIN   =    0.0    initial temperature
   TEBEG  =    0.0;   TEEND  =   0.0 temperature during run
   SMASS  =  -3.00    Nose mass-parameter (am)
   estimated Nose-frequenzy (Omega)   =  0.10E-29 period in steps =****** mass=  -0.215E-26a.u.
   SCALEE = 1.0000    scale energy and forces
   NPACO  =    256;   APACO  = 16.0  distance and # of slots for P.C.
   PSTRESS=    0.0 pullay stress

  Mass of Ions in am
   POMASS =  16.00 54.94
  Ionic Valenz
   ZVAL   =   6.00  7.00
  Atomic Wigner-Seitz radii
  virtual crystal weights
   VCA    =   1.00  1.00
   NELECT =     310.0000    total number of electrons
   NUPDOWN=      -1.0000    fix difference up-down

 DOS related values:
   EMIN   =  10.00;   EMAX   =-10.00  energy-range for DOS
   EFERMI =   0.00
   ISMEAR =    -5;   SIGMA  =   0.20  broadening in eV -4-tet -1-fermi 0-gaus

 Electronic relaxation 2 (details)
   IALGO  =     38    algorithm
   LDIAG  =      T    sub-space diagonalisation (order eigenvalues)
   LSUBROT=      T    optimize rotation matrix (better conditioning)
   TURBO    =      0    0=normal 1=particle mesh
   IRESTART =      0    0=no restart 2=restart with 2 vectors
   NREBOOT  =      0    no. of reboots
   NMIN     =      0    reboot dimension
   EREF     =   0.00    reference energy to select bands
[...]
     51      -7.4663      1.00000
     52      -7.4313      1.00000
     53      -7.3160      1.00000
     54      -7.2799      1.00000
     55      -7.2398      1.00000
     56      -7.2133      1.00000
     57      -7.0282      1.00000
     58      -6.9053      1.00000
     59      -6.8499      1.00000
     60      -6.7978      1.00000
[...]
    178       0.9364      0.00000
    179       1.0986      0.00000
    180       1.1061      0.00000
    181       1.2383      0.00000
    182       1.2768      0.00000
    183       1.3383      0.00000
    184       1.3997      0.00000
    185       1.4612      0.00000
    186       1.5759      0.00000
    187       1.7464      0.00000
    188       2.0779      0.00000
    189       2.1524      0.00000
    190       2.2498      0.00000
    191       2.3104      0.00000
    192       2.7076      0.00000

[...]

 spin component 2

[...]

 k-point  10 :       0.3333    0.4444    0.0000
  band No.  band energies     occupation
      1     -21.2691      1.00000
      2     -20.2814      1.00000
      3     -20.2531      1.00000
      4     -20.2190      1.00000
      5     -20.1752      1.00000
      6     -20.1383      1.00000
      7     -20.0118      1.00000
      8     -19.9622      1.00000
      9     -19.9125      1.00000
     10     -19.8342      1.00000
     11     -19.7927      1.00000
     12     -19.7825      1.00000
     13     -19.7147      1.00000
     14     -19.6925      1.00000
     15     -19.6323      1.00000
     16     -19.5883      1.00000
     17     -19.5579      1.00000
     18     -19.3473      1.00000
     19     -19.2960      1.00000
     20     -19.2574      1.00000
     21     -19.2033      1.00000
     22     -19.1842      1.00000
     23     -19.0899      1.00000
     24     -19.0101      1.00000
     25     -18.8245      1.00000
     26     -18.6768      1.00000
     27     -18.6304      1.00000
     28     -18.5585      1.00000
     29     -17.7685      1.00000
     30     -17.7520      1.00000
     31     -17.6630      1.00000
     32     -17.6327      1.00000
     33     -17.1107      1.00000
     34     -16.9325      1.00000
     35     -13.7434      1.00000
     36     -12.4767      1.00000
     37     -11.1437      1.00000
     38      -8.8130      1.00000
     39      -8.6098      1.00000
     40      -8.5070      1.00000
     41      -8.3236      1.00000
     42      -8.2940      1.00000
     43      -8.1623      1.00000
     44      -8.0694      1.00000
     45      -7.9649      1.00000
     46      -7.8667      1.00000
     47      -7.8220      1.00000
     48      -7.7501      1.00000
     49      -7.7061      1.00000
     50      -7.6699      1.00000
     51      -7.6267      1.00000
     52      -7.5852      1.00000
     53      -7.5508      1.00000
     54      -7.4741      1.00000
     55      -7.3865      1.00000
     56      -7.3446      1.00000
     57      -7.2559      1.00000
     58      -7.2137      1.00000
     59      -7.1501      1.00000
     60      -7.1133      1.00000
[...]
    178       0.0831      0.00000
    179       0.2987      0.00000
    180       0.4223      0.00000
    181       0.4937      0.00000
    182       0.6326      0.00000
    183       1.1374      0.00000
    184       1.1776      0.00000
    185       1.2361      0.00000
    186       1.3137      0.00000
    187       1.6812      0.00000
    188       1.7397      0.00000
    189       1.8005      0.00000
    190       2.6217      0.00000
    191       2.7786      0.00000
    192       3.3273      0.00000

 soft charge-density along one line, spin component           1
         0         1         2         3         4         5         6         7         8         9
 total charge-density along one line

 soft charge-density along one line, spin component           2
         0         1         2         3         4         5         6         7         8         9
 total charge-density along one line

------------------------ aborting loop because EDIFF is reached ----------------------------------------

  FORCE on cell =-STRESS in cart. coord.  units (eV):
  Direction    XX          YY          ZZ          XY          YZ          ZX
  Alpha Z   775.65411   775.65411   775.65411
  Ewald   78953.16355 85654.27915-92242.13251    -0.00000    -0.00000    91.81964
  Hartree 92760.09692 97913.99547-90069.59676    -0.00000    -0.00000  -281.93703
  E(xc)   -1538.44387 -1540.34454 -1538.79905    -0.00000    -0.00000    -0.05740
  Local  ************************177813.78469    -0.00000    -0.00000   254.42332
  n-local  -507.94486  -484.43399  -506.42357    -1.18618    -1.02568    -5.40637
  augment   730.86616   712.80217   695.99652    -0.00000    -0.00000    -3.45717
  Kinetic  5399.08921  5283.63331  5400.90161    -0.21891    -0.12283    -5.89783
  Fock        0.00000     0.00000     0.00000     0.00000     0.00000     0.00000
  Total     944.85151  1183.36648   329.38502     0.00000     0.00000    49.48715
  in kB    1869.44535  2341.36151   651.70801     0.00000     0.00000    97.91329

 VOLUME and BASIS-vectors are now :
  energy-cutoff  :      520.00
  volume of cell :      809.77
      direct lattice vectors                 reciprocal lattice vectors
     9.694590000  0.000000000  0.000000000     0.103150314  0.000000000  0.000000000
     0.000000000  2.841300000  0.000000000     0.000000000  0.351951571  0.000000000
     0.000000000  0.000000000 29.397800000     0.000000000  0.000000000  0.034016151

  length of vectors
     9.694590000  2.841300000 29.397800000     0.103150314  0.351951571  0.034016151

 FORCES acting on ions
    electron-ion (+dipol)            ewald-force                    non-local-force                 convergence-correction
   0.488E+02 -.720E-12 0.193E+04   -.685E+02 0.833E-14 -.199E+04   -.125E+01 0.162E-18 0.308E+02   0.208E+02 0.185E-11 0.302E+02
   0.264E+03 0.549E-16 0.156E+03   -.224E+03 0.133E-13 -.632E+02   0.154E+02 -.119E-17 -.179E+02   -.552E+02 0.286E-11 -.741E+02
   0.842E+02 0.183E-17 -.188E+04   -.194E+03 0.133E-13 0.184E+04   0.164E+02 -.185E-18 -.170E+02   0.940E+02 0.300E-13 0.534E+02
   0.234E+03 0.154E-11 0.126E+04   -.237E+03 0.598E-14 -.106E+04   0.166E+02 0.457E-18 -.121E+02   -.151E+02 0.183E-11 -.181E+03
   0.239E+03 0.156E-11 -.907E+03   -.225E+03 0.705E-14 0.906E+03   0.161E+02 0.409E-18 -.184E+02   -.293E+02 0.226E-11 0.202E+02
   -.122E+03 -.100E-13 0.188E+04   0.201E+03 -.112E-14 -.181E+04   -.142E+02 -.390E-18 0.197E+02   -.626E+02 0.104E-11 -.927E+02
   -.197E+03 -.450E-13 -.156E+03   0.221E+03 0.112E-13 0.141E+03   -.153E+02 0.441E-20 0.189E+02   -.831E+01 -.202E-11 -.425E+01
   -.207E+03 -.199E-13 0.964E+03   0.228E+03 -.578E-14 -.829E+03   -.161E+02 0.447E-18 0.203E+02   -.520E+01 -.243E-11 -.155E+03
   -.215E+03 0.180E-12 -.127E+04   0.251E+03 0.161E-13 0.112E+04   -.140E+02 0.920E-19 0.166E+02   -.219E+02 -.126E-11 0.132E+03
   -.275E+03 -.550E-13 0.596E+02   0.293E+03 0.897E-14 -.360E+02   -.186E+02 -.147E-20 -.152E+02   0.147E+01 -.217E-11 -.866E+01
   -.124E+03 -.200E-13 -.209E+04   0.200E+03 0.153E-14 0.192E+04   -.211E+02 0.160E-17 -.908E+01   -.557E+02 0.134E-11 0.174E+03
   -.310E+03 0.798E-12 0.119E+04   0.314E+03 -.823E-15 -.104E+04   -.217E+02 -.957E-18 -.916E+01   0.194E+02 -.934E-12 -.148E+03
   -.287E+03 0.760E-12 -.100E+04   0.298E+03 -.391E-14 0.936E+03   -.209E+02 0.178E-18 -.139E+02   0.861E+01 -.385E-12 0.822E+02
   0.201E+03 -.400E-13 0.185E+04   -.278E+03 0.689E-14 -.179E+04   0.177E+02 -.171E-17 0.152E+02   0.586E+02 0.341E-12 -.797E+02
   0.283E+03 -.749E-14 -.160E+03   -.293E+03 0.157E-13 0.108E+03   0.181E+02 0.878E-18 0.159E+02   -.998E+01 0.501E-12 0.354E+02
   0.317E+03 0.605E-12 0.946E+03   -.300E+03 0.503E-14 -.859E+03   0.204E+02 -.663E-18 0.154E+02   -.378E+02 0.663E-12 -.103E+03
   0.439E+03 -.370E-12 -.124E+04   -.312E+03 -.379E-14 0.111E+04   0.147E+02 -.179E-17 0.179E+02   -.145E+03 0.514E-12 0.113E+03
   -.137E+03 0.501E-13 0.102E+04   0.136E+03 -.461E-14 -.895E+03   -.250E+01 0.712E-18 0.443E+01   0.456E+01 -.719E-13 -.129E+03
   -.184E+03 0.400E-13 -.117E+04   0.133E+03 0.126E-16 0.104E+04   -.563E+00 0.840E-18 -.151E+01   0.517E+02 -.226E-11 0.126E+03
   -.955E+02 0.520E-12 0.195E+04   0.120E+03 0.143E-13 -.199E+04   0.246E-02 -.211E-18 0.171E+02   -.234E+02 -.252E-11 0.198E+02
   -.133E+03 -.860E-12 -.887E+02   0.126E+03 0.637E-14 0.692E+02   -.135E+01 0.300E-18 0.321E+01   0.851E+01 -.146E-11 0.155E+02
   0.142E+03 -.399E-13 0.116E+04   -.137E+03 0.246E-13 -.982E+03   0.202E+01 -.493E-18 -.352E+00   -.746E+01 0.202E-11 -.177E+03
   0.130E+03 -.401E-13 -.942E+03   -.134E+03 -.274E-15 0.972E+03   0.238E+01 -.563E-18 -.104E+02   0.233E+01 0.204E-11 -.229E+02
   0.126E+03 -.140E-12 -.317E+02   -.124E+03 0.252E-13 -.144E+01   0.201E+01 0.417E-18 -.567E+01   -.402E+01 0.295E-11 0.368E+02
   0.438E+02 -.225E-12 -.195E+04   -.563E+02 -.229E-14 0.198E+04   0.178E+01 -.698E-18 -.227E+02   0.108E+02 0.230E-11 -.881E+01
   -.840E+01 -.249E-14 0.463E+03   -.473E+02 0.468E-14 -.420E+03   0.358E+01 0.161E-19 0.379E+01   0.517E+02 -.462E-11 -.472E+02
   0.781E+02 0.138E-13 -.167E+04   -.820E+01 0.677E-15 0.158E+04   0.375E+01 -.496E-18 0.403E+01   -.736E+02 0.112E-12 0.869E+02
   0.336E+02 0.145E-12 0.150E+04   -.416E+02 0.163E-13 -.138E+04   0.462E+01 -.854E-18 0.371E+01   0.493E+01 -.721E-12 -.119E+03
   0.871E+01 0.193E-12 -.591E+03   -.462E+02 0.200E-13 0.546E+03   0.449E+01 -.584E-18 0.301E+01   0.324E+02 -.106E-11 0.418E+02
   -.916E+02 -.300E-13 0.151E+04   0.808E+02 -.613E-15 -.140E+04   -.662E+01 0.317E-17 -.817E+01   0.163E+02 0.187E-11 -.102E+03
   -.602E+02 -.100E-13 -.537E+03   0.465E+02 0.148E-13 0.496E+03   -.304E+01 -.430E-18 -.413E+01   0.180E+02 0.392E-11 0.452E+02
   -.756E+02 -.212E-11 0.578E+03   0.355E+02 0.157E-13 -.488E+03   -.384E+01 0.118E-17 -.110E+01   0.437E+02 0.163E-11 -.887E+02
   -.186E+03 0.189E-11 -.155E+04   0.294E+02 -.257E-14 0.146E+04   -.122E+00 0.603E-17 -.390E+01   0.159E+03 0.453E-11 0.996E+02
   0.552E+01 0.206E-13 0.429E+03   -.297E+01 0.159E-13 -.362E+03   -.354E+00 -.157E-17 -.627E+00   -.160E+01 0.413E-12 -.664E+02
   -.494E+02 -.133E-13 -.199E+04   0.497E+02 -.220E-14 0.192E+04   -.319E+00 -.608E-18 0.121E+01   -.428E-01 0.151E-11 0.723E+02
   0.505E+02 0.885E-12 0.167E+04   -.202E+02 -.980E-14 -.151E+04   0.202E+00 -.796E-18 0.957E-01   -.311E+02 -.101E-11 -.161E+03
   0.178E+02 -.391E-12 -.780E+03   -.142E+02 0.568E-14 0.772E+03   -.622E+00 -.339E-19 -.551E+00   -.229E+01 0.575E-13 0.101E+02
   0.152E+02 -.216E-13 0.198E+04   0.103E+02 -.158E-13 -.188E+04   -.933E+00 -.508E-18 -.219E+01   -.267E+02 -.663E-12 -.989E+02
   -.501E+01 0.166E-13 -.471E+03   0.897E+01 -.239E-14 0.447E+03   0.714E+00 0.120E-18 0.783E+00   -.529E+01 -.136E-11 0.243E+02
   -.108E+00 0.724E-13 0.804E+03   0.149E+02 -.483E-14 -.673E+03   0.395E-02 0.590E-18 0.930E+00   -.147E+02 -.234E-11 -.131E+03
   -.115E+03 0.919E-13 -.168E+04   0.238E+02 0.610E-14 0.157E+04   0.162E+00 -.307E-19 -.114E+01   0.890E+02 0.784E-12 0.116E+03
   0.423E+02 0.266E-14 0.849E+03   -.436E+02 -.114E-13 -.739E+03   0.474E+00 -.447E-18 0.160E+01   0.157E+01 -.215E-11 -.111E+03
   0.711E+02 -.178E-13 -.164E+04   -.637E+02 0.299E-14 0.153E+04   0.112E+01 -.321E-17 -.326E+01   -.571E+01 -.266E-11 0.113E+03
   -.101E+02 0.189E-12 0.194E+04   -.233E+02 0.244E-13 -.186E+04   -.113E+00 0.372E-18 -.418E+01   0.340E+02 -.247E-11 -.855E+02
   0.293E+02 -.225E-12 -.440E+03   -.328E+02 -.122E-13 0.385E+03   -.413E-01 -.731E-18 -.198E+00   0.408E+01 -.725E-12 0.551E+02
   -.627E+02 0.284E-13 0.158E+04   0.410E+02 -.357E-14 -.144E+04   -.156E+00 0.494E-18 -.294E+00   0.219E+02 0.277E-11 -.147E+03
   -.601E+02 0.155E-13 -.909E+03   0.378E+02 -.379E-14 0.829E+03   0.447E+00 -.733E-18 -.797E+00   0.219E+02 0.156E-11 0.806E+02
   -.455E+02 -.198E-12 0.339E+03   0.352E+02 -.626E-14 -.302E+03   0.132E+00 0.118E-18 -.553E+00   0.966E+01 0.168E-11 -.367E+02
   0.974E+02 0.500E-13 -.225E+04   -.827E+01 0.197E-13 0.211E+04   0.200E+00 -.103E-18 0.275E+01   -.875E+02 0.143E-11 0.128E+03
   -.574E+02 0.405E-11 0.627E+03   -.888E-13 0.233E-12 0.182E-11   -.169E+00 -.140E-17 0.328E+02   0.599E+02 0.950E-11 -.667E+03

 POSITION                                       TOTAL-FORCE (eV/Angst)
      3.30681      1.42065      4.69425        -0.211118     -0.000000      0.894142
      1.51130      0.00000     12.69984        -0.176733     -0.000000      0.816963
      1.51111      0.00000     22.40485         0.339566      0.000000      1.654144
      6.38415      1.42065      7.84716        -1.406480     -0.000000      3.989855
      6.35840      1.42065     17.55540         0.039527      0.000000      0.329589
      8.18729      0.00000      6.94648         2.055286      0.000000     -0.651882
      8.18348      0.00000     16.69185         0.474259     -0.000000     -0.035709
      3.33724      1.42065     11.82139        -0.186082     -0.000000      0.194391
      3.33619      1.42065     21.54130         0.727862      0.000000     -0.808424
      7.73617      0.00000     13.17155         0.563133      0.000000     -0.165853
      7.72084      0.00000     22.88670        -0.706555     -0.000000      2.548331
      2.83608      1.42065      8.32661         0.651059      0.000000      0.824259
      2.87354      1.42065     18.03725        -0.602399      0.000000      1.844526
      2.00387      0.00000      6.48980        -0.634036      0.000000      0.410633
      1.97375      0.00000     16.21000        -1.662630      0.000000     -0.112955
      6.83156      1.42065     11.33063        -0.423267      0.000000      0.256036
      6.82105      1.42065     21.05945        -2.848563      0.000000      1.715706
      1.57406      0.00000     10.22773         0.176143      0.000000      0.626361
      1.56388      0.00000     19.93392         0.031901      0.000000     -1.040638
      6.37869      1.42065      5.40846         0.686650     -0.000000     -3.193670
      6.41117      1.42065     15.08447         0.318124     -0.000000     -0.586569
      8.13110      0.00000      9.43131        -0.429360      0.000000      2.369890
      8.13071      0.00000     19.16278         0.034870      0.000000     -3.136436
      3.28313      1.42065     14.30152        -0.160059     -0.000000     -1.922041
      3.28342      1.42065     24.01223         0.000862     -0.000000     -1.349363
      5.25975      0.00000     13.07476        -0.456300     -0.000000      0.195961
      5.24874      0.00000     22.78600        -0.034035      0.000000      1.186213
      0.39338      1.42065      8.24728         1.579719      0.000000      0.133753
      0.40145      1.42065     17.93655        -0.633745     -0.000000     -0.046381
      4.42808      0.00000      6.67712        -1.235282      0.000000      0.500138
      4.44585      0.00000     16.31070         1.298520     -0.000000      0.082222
      9.30561      1.42065     11.39461        -0.271280      0.000000      0.168184
      9.29314      1.42065     21.16015         2.007213     -0.000000      0.306340
      3.36966      0.00000     13.06877         0.549513      0.000000      0.392338
      3.37164      0.00000     22.78659        -0.174907      0.000000      3.877839
      8.21977      1.42065      8.20144        -0.602826      0.000000     -0.000756
      8.21893      1.42065     17.93714         0.719720      0.000000      1.410234
      6.34064      0.00000      6.52660        -2.157171      0.000000     -2.826963
      6.32295      0.00000     16.31011        -0.657565      0.000000      0.662225
      1.46472      1.42065     11.44797         0.009980      0.000000      0.802583
      1.47566      1.42065     21.15956        -2.469326      0.000000     -0.949248
      8.07822      0.00000     11.28396         0.762631      0.000000      0.365435
      8.07008      0.00000     21.01581         2.794531     -0.000000     -4.132940
      3.25101      1.42065      6.29199         0.474198     -0.000000     -2.018883
      3.22279      1.42065     16.16636         0.483927     -0.000000     -0.288351
      1.64280      0.00000      8.36545         0.079880     -0.000000     -0.787818
      1.62451      0.00000     18.08089        -0.009561      0.000000      0.603254
      6.48068      1.42065     13.20556        -0.526889      0.000000     -0.069302
      6.47180      1.42065     22.93034         1.817099      0.000000     -5.037361
    total drift:                                2.304540      0.000000     -7.246088

  FREE ENERGIE OF THE ION-ELECTRON SYSTEM (eV)
  free  energy   TOTEN  =      -377.46224015 eV

  energy  without entropy=     -377.46224015  energy(sigma->0) =     -377.46224015

 BZINTS: Fermi energy: -1.298631;310.000000 electrons
         Band energy:***********;  BLOECHL correction: -0.029862