 vasp.5.3.3 18Dez12 (build May 12 2016 12:04:25) complex

 executed on             LinuxIFC date 2019.03.04  19:08:13

 INCAR:
 POTCAR:   PAW_PBE Mn 06Sep2000
 POTCAR:   PAW_PBE O_s 07Sep2000
 POTCAR:    PAW_PBE Li 17Jan2003
 POTCAR:   PAW_PBE Mn 06Sep2000

 POTCAR:   PAW_PBE O_s 07Sep2000

 POTCAR:    PAW_PBE Li 17Jan2003

 PAW_PBE Mn 06Sep2000                   :
 PAW_PBE O_s 07Sep2000                  :
  PAW_PBE Li 17Jan2003                  :

 POSCAR: Li Mn30 O62  (P1) ~ CONTCAR (VASP)
  positions in direct lattice
  velocities in cartesian coordinates
 exchange correlation table for  LEXCH =        8
   RHO(1)=    0.500       N(1)  =     2000
   RHO(2)=  100.500       N(2)  =     4000

 ion  position               nearest neighbor table
   1  0.077  0.263  0.621-  52 1.89  52 1.89  31 1.92  72 1.93  72 1.93  63 1.94  10 2.93  10 2.93

   2  0.081  0.259  0.528-  51 1.89  51 1.89  32 1.91  71 1.93  71 1.93  64 1.94   9 2.92   9 2.92

[...]

   4  0.030  0.257  0.434-  49 1.92  49 1.92  69 1.94  69 1.94  34 1.97  66 2.32  93 2.71  93 2.71
                            93 3.06  93 3.06
   5  0.972  0.753  0.310-  48 1.90  48 1.90  35 1.91  68 1.94  68 1.94  67 1.97   6 2.94   6 2.94

[...]

  20  0.577  0.763  0.643-  31 1.89  31 1.89  52 1.92  53 1.93  53 1.93  62 1.94  11 2.94  11 2.94

  21  0.972  0.763  0.690-  78 1.90  78 1.90  42 1.90  42 1.90  41 1.93  88 1.94
  22  0.975  0.762  0.735-  79 1.90  79 1.90  83 1.90  83 1.90  89 1.94  73 1.94
  23  0.976  0.763  0.779-  80 1.90  80 1.90  84 1.90  84 1.90  90 1.94  74 1.94
  24  0.977  0.763  0.823-  81 1.90  81 1.90  85 1.90  85 1.90  91 1.94  75 1.94
  25  0.981  0.764  0.868-  92 1.89  86 1.91  86 1.91  82 1.92  82 1.92  76 1.97
  26  0.473  0.263  0.713-  73 1.90  73 1.90  88 1.90  88 1.90  83 1.93  78 1.94
  27  0.475  0.262  0.757-  74 1.90  74 1.90  89 1.90  89 1.90  84 1.93  79 1.94
  28  0.476  0.263  0.801-  75 1.90  75 1.90  90 1.90  90 1.90  85 1.94  80 1.94
  29  0.473  0.263  0.846-  91 1.90  91 1.90  76 1.90  76 1.90  86 1.94  81 1.95
  30  0.449  0.264  0.890-  87 1.81  77 1.87  77 1.87  92 1.93  92 1.93  82 2.05
  31  0.401  0.263  0.634-  20 1.89  20 1.89   1 1.92
  32  0.413  0.260  0.540-  19 1.89  19 1.89   2 1.91
  33  0.793  0.756  0.198-   3 1.90
  34  0.329  0.258  0.448-  18 1.91  18 1.91   4 1.97
  35  0.694  0.754  0.296-  17 1.91  17 1.91   5 1.91
  36  0.285  0.253  0.350-  16 1.90  16 1.90   6 1.95
  37  0.721  0.755  0.390-  15 1.91  15 1.91   7 1.91
  38  0.279  0.256  0.255-  14 1.90  14 1.90   8 1.95
  39  0.639  0.759  0.491-  13 1.89  13 1.89   9 1.92
  40  0.629  0.762  0.584-  12 1.89  12 1.89  10 1.92
  41  0.652  0.763  0.678-  11 1.89  11 1.89  21 1.93
  42  0.143  0.263  0.681-  21 1.90  21 1.90  11 1.92
  43  0.129  0.263  0.587-  10 1.89  10 1.89  12 1.91
  44  0.137  0.259  0.494-   9 1.89   9 1.89  13 1.91
  45  0.780  0.758  0.248-   8 1.91   8 1.91  14 1.92
  46  0.219  0.256  0.399-   7 1.90   7 1.91  15 1.96
  47  0.786  0.752  0.343-  16 1.91   6 1.91   6 1.91
  48  0.194  0.253  0.303-   5 1.90   5 1.90  17 1.95
  49  0.792  0.758  0.440-   4 1.92   4 1.92  18 1.96  93 1.98
  50  0.178  0.259  0.205-   3 1.90   3 1.90
  51  0.912  0.760  0.538-   2 1.89   2 1.89  19 1.92
  52  0.901  0.763  0.631-   1 1.89   1 1.89  20 1.92
  53  0.748  0.263  0.654-  20 1.93  20 1.93  11 1.94
  54  0.745  0.261  0.560-  19 1.93  19 1.93  12 1.94
  55  0.725  0.258  0.466-  18 1.93  18 1.93  13 1.96
  56  0.274  0.755  0.279-  17 1.92  17 1.92  14 1.97
  57  0.712  0.253  0.367-  16 1.93  16 1.93  15 1.94
  58  0.285  0.754  0.375-  15 1.92  15 1.92  16 1.97
  59  0.704  0.255  0.271-  14 1.94  14 1.94  17 1.94
  60  0.280  0.758  0.472-  18 1.92  13 1.93  13 1.93
  61  0.294  0.761  0.564-  19 1.93  12 1.93  12 1.93
  62  0.301  0.763  0.658-  11 1.93  11 1.93  20 1.94
  63  0.794  0.263  0.607-  10 1.93  10 1.93   1 1.94
  64  0.795  0.259  0.514-   9 1.93   9 1.93   2 1.94
  65  0.208  0.758  0.231-   8 1.93   8 1.93   3 1.94
  66  0.770  0.257  0.414-  93 1.92  93 1.92   7 1.93   7 1.93   4 2.32
  67  0.205  0.752  0.327-   6 1.92   6 1.92   5 1.97
  68  0.774  0.252  0.319-   5 1.94   5 1.94   6 1.94
  69  0.194  0.757  0.423-  93 1.75   4 1.94   4 1.94   7 2.00
  70  0.777  0.259  0.223-   3 1.94   3 1.94   8 1.95
  71  0.246  0.759  0.518-   9 1.93   2 1.93   2 1.93
  72  0.244  0.763  0.611-   1 1.93   1 1.93  10 1.94
  73  0.643  0.763  0.722-  26 1.90  26 1.90  22 1.94
  74  0.646  0.763  0.767-  27 1.90  27 1.90  23 1.94
  75  0.646  0.763  0.811-  28 1.90  28 1.90  24 1.94
  76  0.640  0.763  0.856-  29 1.90  29 1.90  25 1.97
  77  0.586  0.764  0.900-  30 1.87  30 1.87
  78  0.803  0.263  0.700-  21 1.90  21 1.90  26 1.94
  79  0.805  0.262  0.744-  22 1.90  22 1.90  27 1.94
  80  0.808  0.263  0.789-  23 1.90  23 1.90  28 1.94
  81  0.807  0.263  0.833-  24 1.90  24 1.90  29 1.95
  82  0.824  0.264  0.879-  25 1.92  25 1.92  30 2.05
  83  0.143  0.262  0.725-  22 1.90  22 1.90  26 1.93
  84  0.145  0.263  0.769-  23 1.90  23 1.90  27 1.93
  85  0.145  0.263  0.813-  24 1.90  24 1.90  28 1.94
  86  0.132  0.264  0.857-  25 1.91  25 1.91  29 1.94
  87  0.097  0.263  0.899-  30 1.81
  88  0.305  0.763  0.703-  26 1.90  26 1.90  21 1.94
  89  0.306  0.762  0.747-  27 1.90  27 1.90  22 1.94
  90  0.309  0.763  0.791-  28 1.90  28 1.90  23 1.94
  91  0.310  0.763  0.836-  29 1.90  29 1.90  24 1.94
  92  0.325  0.764  0.878-  25 1.89  30 1.93  30 1.93
  93  0.580  0.757  0.423-  69 1.75  66 1.92  66 1.92  49 1.98   7 2.56   4 2.71   4 2.71   4 3.06
                             4 3.06   7 3.24

  LATTYP: Found a simple orthorhombic cell.
 ALAT       =     2.8659999400
 B/A-ratio  =     1.5816469242
 C/A-ratio  =    34.8918360410

  Lattice vectors:

 A1 = (   0.0000000000,  -2.8659999400,   0.0000000000)
 A2 = (  -4.5329999900,   0.0000000000,   0.0000000000)
 A3 = (   0.0000000000,   0.0000000000,-100.0000000000)

Analysis of symmetry for initial positions (statically):
 Subroutine PRICEL returns:
 Original cell was already a primitive cell.

 Routine SETGRP: Setting up the symmetry group for a
 simple orthorhombic supercell.

 Subroutine GETGRP returns: Found  1 space group operations
 (whereof  1 operations were pure point group operations)
 out of a pool of  8 trial point group operations.

The static configuration has the point symmetry C_1 .

Analysis of symmetry for dynamics (positions and initial velocities):
 Subroutine PRICEL returns:
 Original cell was already a primitive cell.

 Routine SETGRP: Setting up the symmetry group for a
 simple orthorhombic supercell.

 Subroutine GETGRP returns: Found  1 space group operations
 (whereof  1 operations were pure point group operations)
 out of a pool of  8 trial point group operations.

The dynamic configuration has the point symmetry C_1 .

Analysis of magnetic symmetry:

 Subroutine MAGSYM returns: Found  1 space group operations
 (whereof  1 operations were pure point group operations)
 out of a pool of  1 trial space group operations
 (whereof  1 operations were pure point group operations)
 and found also     1 'primitive' translations

The magnetic configuration has the point symmetry C_1 .

 irot  :   1
 isymop:   1   0   0
           0   1   0
           0   0   1

 gtrans:     0.0000000     0.0000000     0.0000000

 ptrans:     0.0000000     0.0000000     0.0000000
 rotmap:
 (   1->   1)  (   2->   2)  (   3->   3)  (   4->   4)  (   5->   5)
 (   6->   6)  (   7->   7)  (   8->   8)  (   9->   9)  (  10->  10)
 (  11->  11)  (  12->  12)  (  13->  13)  (  14->  14)  (  15->  15)
 (  16->  16)  (  17->  17)  (  18->  18)  (  19->  19)  (  20->  20)
 (  21->  21)  (  22->  22)  (  23->  23)  (  24->  24)  (  25->  25)
 (  26->  26)  (  27->  27)  (  28->  28)  (  29->  29)  (  30->  30)
 (  31->  31)  (  32->  32)  (  33->  33)  (  34->  34)  (  35->  35)
 (  36->  36)  (  37->  37)  (  38->  38)  (  39->  39)  (  40->  40)
 (  41->  41)  (  42->  42)  (  43->  43)  (  44->  44)  (  45->  45)
 (  46->  46)  (  47->  47)  (  48->  48)  (  49->  49)  (  50->  50)
 (  51->  51)  (  52->  52)  (  53->  53)  (  54->  54)  (  55->  55)
 (  56->  56)  (  57->  57)  (  58->  58)  (  59->  59)  (  60->  60)
 (  61->  61)  (  62->  62)  (  63->  63)  (  64->  64)  (  65->  65)
 (  66->  66)  (  67->  67)  (  68->  68)  (  69->  69)  (  70->  70)
 (  71->  71)  (  72->  72)  (  73->  73)  (  74->  74)  (  75->  75)
 (  76->  76)  (  77->  77)  (  78->  78)  (  79->  79)  (  80->  80)
 (  81->  81)  (  82->  82)  (  83->  83)  (  84->  84)  (  85->  85)
 (  86->  86)  (  87->  87)  (  88->  88)  (  89->  89)  (  90->  90)
 (  91->  91)  (  92->  92)  (  93->  93)

 KPOINTS: Automatic mesh

Automatic generation of k-mesh.
Space group operators:
 irot       det(A)        alpha          n_x          n_y          n_z        tau_x        tau_y        tau_z
    1     1.000000     0.000000     1.000000     0.000000     0.000000     0.000000     0.000000     0.000000

 Subroutine IBZKPT returns following result:

 Found      4 irreducible k-points:

 Following reciprocal coordinates:
            Coordinates               Weight
  0.000000  0.000000  0.000000      1.000000
  0.500000  0.000000  0.000000      1.000000
  0.000000  0.333333  0.000000      2.000000
  0.500000  0.333333  0.000000      2.000000

 Following cartesian coordinates:
            Coordinates               Weight
  0.000000  0.000000  0.000000      1.000000
  0.110302  0.000000  0.000000      1.000000
  0.000000  0.116306  0.000000      2.000000
  0.110302  0.116306  0.000000      2.000000

 TETIRR: Found     15 inequivalent tetrahedra from       36

 I would recommend the setting:
   dimension x,y,z NGX =    22 NGY =   14 NGZ =  489
 SYSTEM =  unknown system
 POSCAR =  Li Mn30 O62  (P1) ~ CONTCAR (VASP)

 Startparameter for this run:
   NWRITE =      1    write-flag & timer
   PREC   = normal    normal or accurate (medium, high low for compatibility)
   ISTART =      0    job   : 0-new  1-cont  2-samecut
   ICHARG =      2    charge: 1-file 2-atom 10-const
   ISPIN  =      2    spin polarized calculation?
   LNONCOLLINEAR =      F non collinear calculations
   LSORBIT =      F    spin-orbit coupling
   INIWAV =      1    electr: 0-lowe 1-rand  2-diag
   LASPH  =      F    aspherical Exc in radial PAW
   METAGGA=      F    non-selfconsistent MetaGGA calc.

 Electronic Relaxation 1
   ENCUT  =  400.0 eV  29.40 Ry    5.42 a.u.   7.39  4.67163.07*2*pi/ulx,y,z
   ENINI  =  400.0     initial cutoff
   ENAUG  =  500.7 eV  augmentation charge cutoff
   NELM   =     60;   NELMIN=  2; NELMDL= -5     # of ELM steps
   EDIFF  = 0.1E-03   stopping-criterion for ELM
   LREAL  =      F    real-space projection
   NLSPLINE    = F    spline interpolate recip. space projectors
   LCOMPAT=      F    compatible to vasp.4.4
   GGA_COMPAT  = T    GGA compatible to vasp.4.4-vasp.4.6
   LMAXPAW     = -100 max onsite density
   LMAXMIX     =    4 max onsite mixed and CHGCAR
   VOSKOWN=      1    Vosko Wilk Nusair interpolation
   ROPT   =    0.00000   0.00000   0.00000
 Ionic relaxation
   EDIFFG = 0.1E-02   stopping-criterion for IOM
   NSW    =      0    number of steps for IOM
[...]

  length of vectors
     4.532999990  2.865999940100.000000000     0.220604457  0.348918360  0.010000000

 FORCES acting on ions
    electron-ion (+dipol)            ewald-force                    non-local-force                 convergence-correction
   -.172E+02 -.176E-01 -.119E+04   0.178E+02 0.158E-01 0.118E+04   -.162E+00 -.675E-03 -.102E+01   -.525E+00 0.136E-02 0.114E+02
   -.124E+02 0.300E-01 0.920E+03   0.125E+02 -.333E-01 -.936E+03   -.222E+00 -.237E-02 -.108E+01   0.210E+00 0.965E-02 0.167E+02
   -.674E+01 -.484E+00 0.742E+04   0.405E+01 0.395E+00 -.738E+04   -.192E+00 0.124E-01 0.813E+00   0.237E+01 0.445E-01 -.464E+02
   -.100E+02 0.193E-01 0.292E+04   0.108E+02 -.195E-01 -.293E+04   -.666E+00 -.648E-03 -.149E+01   0.326E-01 -.715E-04 0.171E+02
   0.698E+01 0.102E+00 0.562E+04   -.693E+01 -.967E-01 -.552E+04   -.168E+00 -.739E-03 0.132E+01   0.197E-02 0.264E-02 -.106E+03
   -.106E+02 0.469E-01 0.498E+04   0.105E+02 -.411E-01 -.490E+04   0.363E+00 -.133E-02 -.680E+00   -.312E+00 -.353E-02 -.805E+02
   -.796E+01 -.545E-01 0.353E+04   0.750E+01 0.498E-01 -.352E+04   0.275E+00 -.203E-02 0.350E+00   0.732E+00 0.157E-02 -.103E+02
   -.238E+01 -.101E+00 0.698E+04   0.441E+01 0.987E-01 -.688E+04   -.919E-03 0.371E-02 -.842E+00   -.183E+01 -.300E-02 -.999E+02
   0.206E+02 0.616E-02 0.155E+04   -.209E+02 -.443E-02 -.157E+04   0.158E+00 0.252E-02 0.113E+01   0.210E+00 -.391E-02 0.182E+02
   0.130E+02 -.109E-01 -.567E+03   -.130E+02 0.903E-02 0.550E+03   0.231E+00 -.677E-03 0.987E+00   -.216E+00 0.497E-03 0.165E+02
   0.144E+02 -.165E-01 -.221E+04   -.146E+02 0.114E-01 0.221E+04   0.356E-01 -.126E-02 -.989E+00   0.272E+00 0.569E-02 -.452E+01
   0.151E+02 0.509E-02 -.139E+03   -.154E+02 -.689E-02 0.124E+03   0.208E+00 -.900E-03 -.125E+01   -.116E-01 0.319E-02 0.167E+02
   -.319E+01 0.223E-01 0.197E+04   0.315E+01 -.214E-01 -.199E+04   0.234E+00 0.583E-03 -.119E+01   -.273E+00 -.145E-03 0.177E+02
   -.904E+01 0.139E+00 0.662E+04   0.843E+01 -.130E+00 -.651E+04   0.212E+00 -.864E-03 0.126E+01   0.412E+00 -.215E-02 -.110E+03
   0.127E+02 0.153E-01 0.393E+04   -.132E+02 -.126E-01 -.390E+04   -.453E+00 0.838E-02 -.460E+00   0.937E+00 -.477E-02 -.324E+02
   0.837E+00 0.137E-01 0.459E+04   -.438E+00 -.100E-01 -.452E+04   0.670E-01 -.398E-03 0.101E+01   -.641E+00 0.174E-02 -.682E+02
   0.706E+01 -.316E-01 0.600E+04   -.666E+01 0.314E-01 -.589E+04   -.311E+00 -.211E-02 -.459E+00   0.563E-02 -.645E-03 -.110E+03
   -.329E+02 -.580E-01 0.257E+04   0.322E+02 0.601E-01 -.258E+04   0.733E+00 0.395E-02 0.589E+00   -.105E+00 -.315E-02 0.170E+02
   -.143E+02 0.861E-02 0.486E+03   0.143E+02 -.944E-02 -.507E+03   -.168E+00 -.183E-02 0.102E+01   0.275E-01 0.460E-02 0.205E+02
   -.114E+02 -.267E-02 -.159E+04   0.115E+02 -.214E-03 0.159E+04   -.185E+00 -.772E-03 0.105E+01   0.147E+00 0.392E-02 -.335E+01
   0.384E+00 0.765E-02 -.271E+04   -.233E+00 -.422E-02 0.272E+04   0.140E-01 0.140E-02 0.571E-01   -.238E+00 -.443E-02 -.442E+01
   -.319E+00 0.814E-02 -.390E+04   -.198E-01 -.706E-02 0.390E+04   -.155E-01 -.498E-04 0.105E+00   0.379E+00 0.176E-04 -.404E+01
   0.319E+00 0.111E-01 -.509E+04   -.487E+00 -.104E-01 0.509E+04   -.404E-01 0.155E-02 -.117E+00   0.243E+00 -.198E-02 0.439E+01
   0.147E+01 0.759E-02 -.628E+04   -.154E+01 -.653E-02 0.627E+04   0.319E-01 0.311E-03 -.885E-01   -.254E-01 -.100E-02 0.384E+01
   0.262E+02 0.128E-01 -.747E+04   -.249E+02 -.133E-01 0.746E+04   -.405E+00 -.115E-03 0.333E+00   -.102E+01 0.384E-04 0.862E+01
   0.319E+00 0.537E-02 -.330E+04   -.147E+00 -.636E-02 0.331E+04   0.279E-01 0.269E-03 0.780E-01   -.220E+00 0.162E-02 -.490E+01
   0.361E+00 0.128E-01 -.450E+04   -.156E+00 -.130E-01 0.450E+04   0.392E-01 0.929E-03 0.337E-02   -.291E+00 0.151E-03 0.129E+00
   0.108E+01 0.633E-02 -.568E+04   -.887E+00 -.609E-02 0.568E+04   -.501E-01 0.310E-03 -.218E-01   -.170E+00 -.327E-03 0.365E+01
   -.564E+01 -.375E-02 -.687E+04   0.568E+01 0.254E-02 0.687E+04   -.274E-01 -.351E-03 -.112E-01   0.138E+00 0.165E-02 0.428E+01
   -.338E+02 -.289E-01 -.807E+04   0.358E+02 0.289E-01 0.805E+04   -.406E+00 0.291E-03 -.115E+01   -.151E+01 0.355E-03 0.212E+02
   0.221E+02 -.874E-02 -.117E+04   -.224E+02 0.171E-01 0.116E+04   0.607E+00 -.439E-02 0.105E+02   -.159E+00 -.429E-02 0.235E+01
   0.148E+02 -.973E-01 0.634E+03   -.136E+02 0.149E+00 -.661E+03   -.146E+01 -.516E-01 0.107E+02   0.208E+00 -.356E-04 0.162E+02
   0.111E+03 0.416E+00 0.644E+04   -.125E+03 0.313E-01 -.647E+04   0.106E+02 -.268E+00 0.234E+02   0.403E+01 -.223E+00 0.131E+02
   0.636E+02 -.788E-02 0.234E+04   -.740E+02 0.281E-01 -.236E+04   0.110E+02 -.277E-01 0.424E+01   -.529E+00 0.789E-03 0.147E+02
   -.486E+02 -.107E+00 0.503E+04   0.574E+02 0.191E+00 -.494E+04   -.842E+01 -.934E-01 0.301E+01   -.191E+00 0.406E-02 -.936E+02
   0.571E+02 -.103E+00 0.405E+04   -.691E+02 0.139E+00 -.399E+04   0.127E+02 -.144E-01 -.200E+01   -.787E+00 -.130E-01 -.608E+02
   -.592E+02 0.176E+00 0.328E+04   0.698E+02 -.319E+00 -.326E+04   -.122E+02 0.122E+00 0.169E+01   0.114E+01 0.181E-01 -.238E+02
   0.560E+02 0.129E+00 0.577E+04   -.687E+02 -.225E+00 -.568E+04   0.132E+02 0.878E-01 -.187E+00   -.274E+00 0.105E-01 -.928E+02
   -.263E+02 0.277E-01 0.150E+04   0.280E+02 -.490E-01 -.150E+04   -.199E+01 0.203E-01 -.992E+01   0.319E+00 0.108E-02 0.156E+02
   -.170E+02 0.879E-01 -.332E+03   0.169E+02 -.129E+00 0.329E+03   0.594E-01 0.461E-01 -.115E+02   0.168E-01 -.639E-02 0.143E+02
   -.317E+02 -.678E-02 -.208E+04   0.337E+02 0.251E-01 0.210E+04   -.144E+01 -.116E-01 -.828E+01   -.572E+00 -.738E-02 -.403E+01
   -.739E+01 0.176E-01 -.206E+04   0.585E+01 -.357E-01 0.205E+04   0.118E+01 0.392E-02 0.121E+02   0.285E+00 0.129E-01 -.451E+01
   -.169E+02 -.731E-01 -.275E+03   0.159E+02 0.117E+00 0.250E+03   0.924E+00 -.473E-01 0.109E+02   0.108E+00 0.332E-02 0.141E+02
   -.180E+02 -.434E-01 0.153E+04   0.181E+02 0.686E-01 -.155E+04   0.316E+00 -.223E-01 0.960E+01   -.288E+00 -.143E-02 0.156E+02
   0.524E+02 -.113E+00 0.588E+04   -.622E+02 0.213E+00 -.579E+04   0.938E+01 -.939E-01 0.300E+01   0.288E+00 -.120E-01 -.902E+02
   -.628E+02 -.938E-01 0.313E+04   0.723E+02 0.213E+00 -.311E+04   -.124E+02 -.119E+00 -.373E+01   0.307E+01 -.712E-02 -.139E+02
   0.507E+02 -.156E-02 0.416E+04   -.577E+02 -.250E-01 -.409E+04   0.930E+01 0.294E-01 0.713E+00   -.206E+01 0.213E-02 -.650E+02
   -.551E+02 0.838E-01 0.493E+04   0.671E+02 -.159E+00 -.484E+04   -.125E+02 0.771E-01 0.606E+00   0.307E+00 0.132E-02 -.927E+02
   0.424E+02 0.352E-01 0.242E+04   -.530E+02 -.657E-01 -.243E+04   0.103E+02 0.309E-01 -.238E+01   0.165E+00 0.115E-02 0.143E+02
   -.183E+03 -.188E-01 0.648E+04   0.194E+03 -.504E+00 -.648E+04   -.103E+02 0.515E+00 0.131E+02   0.615E-02 0.236E-01 -.137E+02
   0.164E+02 0.578E-01 0.572E+03   -.161E+02 -.105E+00 -.577E+03   -.579E-01 0.481E-01 -.116E+02   -.123E+00 0.154E-02 0.159E+02
   0.204E+02 0.211E-01 -.121E+04   -.211E+02 -.306E-01 0.122E+04   0.684E+00 0.592E-02 -.949E+01   -.370E-01 0.237E-02 0.385E+01
   -.177E+03 0.177E-02 -.162E+04   0.212E+03 -.321E-02 0.163E+04   -.347E+02 -.161E-02 -.685E+01   0.223E+00 0.301E-02 -.450E+01
   -.174E+03 0.812E-01 0.148E+03   0.208E+03 -.113E+00 -.156E+03   -.346E+02 0.333E-01 -.837E+01   0.400E-01 -.393E-02 0.166E+02
   -.190E+03 0.398E-01 0.198E+04   0.224E+03 -.475E-01 -.199E+04   -.350E+02 0.284E-02 -.618E+01   0.705E+00 0.140E-02 0.157E+02
   0.184E+03 0.690E-01 0.536E+04   -.220E+03 -.102E+00 -.527E+04   0.353E+02 0.273E-01 0.543E+01   0.296E-01 0.428E-02 -.947E+02
   -.189E+03 0.739E-01 0.372E+04   0.219E+03 -.164E+00 -.367E+04   -.346E+02 0.929E-01 -.400E+01   0.458E+01 0.515E-02 -.476E+02
   0.190E+03 -.129E+00 0.360E+04   -.220E+03 0.229E+00 -.356E+04   0.332E+02 -.109E+00 0.109E+01   -.384E+01 0.160E-04 -.394E+02
   -.185E+03 -.146E+00 0.546E+04   0.220E+03 0.188E+00 -.536E+04   -.353E+02 -.309E-01 -.190E+01   -.648E-02 -.490E-02 -.950E+02
   0.183E+03 -.378E-01 0.193E+04   -.218E+03 0.496E-01 -.195E+04   0.361E+02 -.110E-01 0.513E+01   -.522E+00 0.662E-03 0.155E+02
[...]
   0.163E+02 0.227E-01 -.463E+04   -.143E+02 -.186E-01 0.464E+04   -.147E+01 0.102E-01 -.125E+02   -.536E+00 -.126E-01 0.427E+01
   0.187E+02 0.186E-01 -.564E+04   -.171E+02 -.265E-01 0.565E+04   -.172E+01 0.122E-01 -.117E+02   0.250E-01 -.236E-02 0.309E+01
   0.256E+02 -.348E-02 -.671E+04   -.302E+02 0.500E-02 0.671E+04   0.446E+01 -.177E-02 -.163E+02   0.140E+00 -.149E-03 0.127E+02
   -.148E+02 0.107E-01 -.308E+04   0.131E+02 -.154E-01 0.307E+04   0.237E+01 0.782E-02 0.121E+02   -.669E+00 -.126E-02 -.395E+01
   -.159E+02 -.247E-01 -.410E+04   0.137E+02 0.269E-01 0.409E+04   0.193E+01 -.882E-02 0.113E+02   0.257E+00 0.721E-02 0.257E+01
   -.160E+02 -.390E-01 -.511E+04   0.136E+02 0.330E-01 0.510E+04   0.226E+01 -.144E-01 0.119E+02   0.142E+00 0.185E-01 0.356E+01
   -.594E+01 -.197E-01 -.612E+04   0.399E-01 0.271E-01 0.610E+04   0.542E+01 -.990E-02 0.160E+02   0.462E+00 0.244E-02 0.408E+01
   0.909E+02 0.306E-02 -.714E+04   -.115E+03 -.751E-02 0.714E+04   0.242E+02 0.456E-02 -.168E+02   0.401E+00 0.526E-03 0.220E+02
   0.147E+02 0.213E-01 -.257E+04   -.129E+02 -.308E-01 0.256E+04   -.256E+01 0.152E-01 0.120E+02   0.763E+00 -.509E-02 -.362E+01
   0.164E+02 -.216E-01 -.359E+04   -.143E+02 0.185E-01 0.358E+04   -.188E+01 0.241E-02 0.120E+02   -.168E+00 0.361E-02 -.165E+01
   0.163E+02 -.407E-01 -.461E+04   -.137E+02 0.310E-01 0.459E+04   -.269E+01 -.151E-01 0.115E+02   0.132E+00 0.223E-01 0.486E+01
   0.126E+02 -.161E-01 -.562E+04   -.947E+01 0.259E-01 0.560E+04   -.282E+01 -.993E-02 0.132E+02   -.268E+00 -.663E-03 0.360E+01
   -.171E+02 0.578E-02 -.662E+04   0.300E+02 -.697E-02 0.659E+04   -.126E+02 0.111E-02 0.139E+02   -.475E+00 -.232E-03 0.136E+02
   0.840E+01 -.207E-02 0.448E+03   -.918E+01 0.293E-02 -.449E+03   0.100E+01 0.332E-02 0.173E+00   -.996E-01 -.136E-04 0.128E+01
   -.272E+02 -.152E+00 0.125E+04   0.959E-13 0.344E-12 -.676E-11   0.197E+02 0.245E+00 0.982E+01   0.709E+01 -.100E+00 -.127E+04

 POSITION                                       TOTAL-FORCE (eV/Angst)
      0.34835      0.75409     62.13740        -0.082213     -0.001100     -0.175179
      0.36659      0.74372     52.81991         0.104395      0.004010      0.100990
      4.48609      2.17539     21.45325        -0.501570     -0.031694     -0.564129
      0.13697      0.73770     43.37396         0.137302     -0.000849      0.082593
      4.40687      2.15676     30.99320        -0.114356      0.007624     -0.241018
      0.02755      0.72270     33.56006         0.039109      0.001044      0.342239
      4.46551      2.16905     40.53220         0.547700     -0.005124     -0.328592
      0.00881      0.73929     24.00349         0.196722     -0.001830      0.649205
      4.35979      2.17533     50.32958         0.057182      0.000427      0.066056
      4.35106      2.18587     59.63687        -0.013047     -0.001931      0.166114
      2.13951      0.75443     66.84080         0.123990     -0.000578     -0.254672
      2.08073      0.74985     57.47082        -0.048182      0.000568      0.184323
      2.08713      0.74082     48.15641        -0.074574      0.001388      0.091343
      2.28398      2.16521     26.21194         0.020538      0.005515     -0.425449
      2.22016      0.72964     38.33570        -0.003798      0.006461      0.335964
      2.30704      2.15737     35.76246        -0.170653      0.005119      0.511044
      2.14937      0.72916     28.78540         0.097354     -0.002866     -0.404937
      2.43159      2.17284     45.63589        -0.017033      0.002958      0.022294
      2.63142      2.17995     54.97983        -0.041463      0.002028      0.235178
      2.61529      2.18751     64.31907         0.074064      0.000346     -0.139220
      4.40824      2.18661     69.04071        -0.068271      0.000471     -0.017649
      4.41820      2.18520     73.46542         0.029323      0.001132     -0.137719
      4.42591      2.18588     77.89615         0.040110      0.000390      0.205767
      4.42702      2.18726     82.33794        -0.057589      0.000443     -0.098489
      4.44473      2.18850     86.78435        -0.071179     -0.000485     -0.174346
      2.14347      0.75272     71.25160        -0.015678      0.000972     -0.072544
      2.15422      0.75230     75.68014        -0.042843      0.000945      0.009717
      2.15938      0.75354     80.11496        -0.020703      0.000305      0.070020
      2.14537      0.75498     84.56040         0.160567      0.000173     -0.216709
      2.03496      0.75549     89.00231         0.076804      0.000670     -0.067331
      1.81862      0.75444     63.37052         0.083269     -0.000260      0.097594
      1.86989      0.74625     54.00368        -0.078492      0.000393     -0.016293
      3.59656      2.16677     19.76981         0.406157     -0.043836      0.181675
      1.49287      0.73982     44.80161         0.096270     -0.006652     -0.025272
      3.14367      2.16137     29.56046         0.197633     -0.004839      0.237703
      1.29210      0.72370     35.04297        -0.092642      0.008598     -0.221117
      3.27041      2.16411     39.03645        -0.483688     -0.003159     -0.128405
      1.26307      0.73320     25.49484         0.176976      0.002377      0.248503
      2.89691      2.17400     49.08486         0.011111      0.000159     -0.093292
      2.85328      2.18341     58.43300        -0.012861     -0.001638     -0.047892
      2.95485      2.18732     67.76609         0.037058     -0.000585      0.073249
      0.64784      0.75375     68.05328        -0.067088     -0.001195      0.104946
      0.58573      0.75236     58.66638         0.054196     -0.000333      0.037437
      0.62100      0.74200     49.38479         0.075006      0.001580     -0.030041
      3.53548      2.17144     24.75806        -0.173367     -0.005411      0.211126
      0.99451      0.73512     39.86225         0.127942     -0.006986     -0.346263
      3.56089      2.15575     34.32681         0.248543      0.005074     -0.202868
      0.88015      0.72443     30.26338        -0.168761      0.003794      0.186846
      3.58847      2.17114     44.04842        -0.173291      0.001643     -0.064529
      0.80896      0.74352     20.53772         0.476333      0.016804     -1.284634
      4.13420      2.17714     53.78612         0.043554      0.002481     -0.099069
      4.08489      2.18722     63.08087        -0.009091     -0.001126      0.158899
      3.39081      0.75453     65.35454        -0.058510      0.000044      0.143660
      3.37769      0.74744     56.03386         0.052728     -0.002285     -0.026911
      3.28726      0.74007     46.61252        -0.070617     -0.003430     -0.046504
      1.24293      2.16254     27.88233        -0.029224     -0.001661      0.186718
      3.22611      0.72530     36.67903        -0.168018      0.007616     -0.309838
      1.29210      2.16139     37.45350         0.018673     -0.009935     -0.437337
      3.19076      0.73124     27.14676         0.001881      0.006861      0.167697
      1.26835      2.17361     47.16123         0.039102      0.001552      0.022683
[...]
      3.65062      0.75216     74.44803        -0.009911     -0.000579      0.019899
      3.66111      0.75293     78.88421         0.023960      0.001822     -0.040118
      3.65897      0.75436     83.32645        -0.058567      0.001943      0.031001
      3.73734      0.75548     87.85234         0.085725     -0.000323     -0.162680
      0.64934      0.75226     72.47561         0.020227      0.001881      0.027031
      0.65845      0.75275     76.90699         0.027075      0.000681     -0.048545
      0.65827      0.75411     81.34258        -0.011445     -0.001794      0.054931
      0.59648      0.75535     85.72544        -0.015858      0.000025      0.302627
      0.44060      0.75509     89.86137         0.119493      0.000723      0.077471
      1.38039      2.18585     70.25766         0.032836      0.000688     -0.004658
      1.38594      2.18520     74.69145         0.029716      0.003002     -0.021108
      1.39855      2.18639     79.11911        -0.009993     -0.002448     -0.055642
      1.40468      2.18787     83.55020         0.028849     -0.000711      0.098703
      1.47280      2.18850     87.84243        -0.173410     -0.000231      0.070175
      2.62917      2.16824     42.32015         0.132492      0.004248     -0.240134
    total drift:                               -0.432974     -0.007594     -0.371544

  FREE ENERGIE OF THE ION-ELECTRON SYSTEM (eV)
  free  energy   TOTEN  =      -639.57257379 eV

  energy  without entropy=     -639.57257379  energy(sigma->0) =     -639.57257379

 BZINTS: Fermi energy:  0.634278;583.000000 electrons
         Band energy:***********;  BLOECHL correction: -0.088672