 vasp.5.3.3 18Dez12 (build May 12 2016 12:04:25) complex

 executed on             LinuxIFC date 2019.06.08  13:53:43

 INCAR:
 POTCAR:    PAW_PBE O 08Apr2002
 POTCAR:    PAW_PBE Mn 06Sep2000
 POTCAR:    PAW_PBE O 08Apr2002

 POTCAR:    PAW_PBE Mn 06Sep2000

  PAW_PBE O 08Apr2002                   :
  PAW_PBE Mn 06Sep2000                  :

 POSCAR: (Mn O2)2  (P4_2/mnm) ~  (Pearson #311740
  positions in direct lattice
  velocities in cartesian coordinates
 exchange correlation table for  LEXCH =       14
   RHO(1)=    0.500       N(1)  =     2000
   RHO(2)=  100.500       N(2)  =     4000

 ion  position               nearest neighbor table
   1  0.305  0.305  0.000-   6 1.89   6 1.89   5 1.90
   2  0.805  0.195  0.500-   5 1.89   5 1.89   6 1.90
   3  0.195  0.805  0.500-   5 1.89   5 1.89   6 1.90
   4  0.695  0.695  0.000-   6 1.89   6 1.89   5 1.90
   5  0.000  0.000  0.000-   2 1.89   3 1.89   2 1.89   3 1.89   1 1.90   4 1.90
   6  0.500  0.500  0.500-   1 1.89   4 1.89   1 1.89   4 1.89   3 1.90   2 1.90

  LATTYP: Found a simple tetragonal cell.
 ALAT       =     4.3931206887
 C/A-ratio  =     0.6602599374

  Lattice vectors:

 A1 = (   4.3931206887,   0.0000000000,   0.0000000000)
 A2 = (   0.0000000000,   4.3931206887,   0.0000000000)
 A3 = (   0.0000000000,   0.0000000000,   2.9006015908)

Analysis of symmetry for initial positions (statically):
 Subroutine PRICEL returns:
 Original cell was already a primitive cell.

 Routine SETGRP: Setting up the symmetry group for a
 simple tetragonal supercell.

 Subroutine GETGRP returns: Found 16 space group operations
 (whereof  8 operations were pure point group operations)
 out of a pool of 16 trial point group operations.

The static configuration has the point symmetry D_2h.
 The point group associated with its full space group is D_4h.

Analysis of symmetry for dynamics (positions and initial velocities):
 Subroutine PRICEL returns:
 Original cell was already a primitive cell.

 Routine SETGRP: Setting up the symmetry group for a
 simple tetragonal supercell.

 Subroutine GETGRP returns: Found 16 space group operations
 (whereof  8 operations were pure point group operations)
 out of a pool of 16 trial point group operations.

The dynamic configuration has the point symmetry D_2h.
 The point group associated with its full space group is D_4h.

Analysis of magnetic symmetry:

 Subroutine MAGSYM returns: Found 16 space group operations
 (whereof  8 operations were pure point group operations)
 out of a pool of 16 trial space group operations
 (whereof  8 operations were pure point group operations)
 and found also     1 'primitive' translations

The magnetic configuration has the point symmetry D_2h.
 The point group associated with its full space group is D_4h.

 irot  :   1
 isymop:   1   0   0
           0   1   0
           0   0   1

 gtrans:     0.0000000     0.0000000     0.0000000

 ptrans:     0.0000000     0.0000000     0.0000000
 rotmap:
 (   1->   1)  (   2->   2)  (   3->   3)  (   4->   4)  (   5->   5)
 (   6->   6)

[...]

 irot  :  16
 isymop:  -1   0   0
           0   1   0
           0   0   1

 gtrans:     0.5000000     0.5000000     0.5000000

 ptrans:     0.0000000     0.0000000     0.0000000
 rotmap:
 (   1->   3)  (   2->   4)  (   3->   1)  (   4->   2)  (   5->   6)
 (   6->   5)

 KPOINTS: Automatic mesh

Automatic generation of k-mesh.
Space group operators:
 irot       det(A)        alpha          n_x          n_y          n_z        tau_x        tau_y        tau_z
    1     1.000000     0.000000     1.000000     0.000000     0.000000     0.000000     0.000000     0.000000
    2    -1.000000     0.000000     1.000000     0.000000     0.000000     0.000000     0.000000     0.000000
    3     1.000000   180.000000     0.000000     0.000000     1.000000     0.000000     0.000000     0.000000
    4    -1.000000   180.000000     0.000000     0.000000     1.000000     0.000000     0.000000     0.000000
    5     1.000000   180.000000     0.707107     0.707107     0.000000     0.000000     0.000000     0.000000
    6    -1.000000   180.000000     0.707107     0.707107     0.000000     0.000000     0.000000     0.000000
    7     1.000000   180.000000     0.707107    -0.707107     0.000000     0.000000     0.000000     0.000000
    8    -1.000000   180.000000     0.707107    -0.707107     0.000000     0.000000     0.000000     0.000000
    9     1.000000    90.000000     0.000000     0.000000    -1.000000     0.500000     0.500000     0.500000
   10    -1.000000    90.000000     0.000000     0.000000    -1.000000     0.500000     0.500000     0.500000
   11     1.000000    90.000000     0.000000     0.000000     1.000000     0.500000     0.500000     0.500000
   12    -1.000000    90.000000     0.000000     0.000000     1.000000     0.500000     0.500000     0.500000
   13     1.000000   180.000000     0.000000     1.000000     0.000000     0.500000     0.500000     0.500000
   14    -1.000000   180.000000     0.000000     1.000000     0.000000     0.500000     0.500000     0.500000
   15     1.000000   180.000000     1.000000     0.000000     0.000000     0.500000     0.500000     0.500000
   16    -1.000000   180.000000     1.000000     0.000000     0.000000     0.500000     0.500000     0.500000

 Subroutine IBZKPT returns following result:

 Found     50 irreducible k-points:

 Following reciprocal coordinates:
            Coordinates               Weight
  0.000000  0.000000  0.000000      1.000000
  0.166667  0.000000  0.000000      4.000000
  0.333333  0.000000  0.000000      4.000000
  0.500000  0.000000  0.000000      2.000000
  0.166667  0.166667  0.000000      4.000000
  0.333333  0.166667  0.000000      8.000000
  0.500000  0.166667  0.000000      4.000000
  0.333333  0.333333  0.000000      4.000000
  0.500000  0.333333  0.000000      4.000000
  0.500000  0.500000  0.000000      1.000000
  0.000000  0.000000  0.111111      2.000000
  0.166667  0.000000  0.111111      8.000000
  0.333333  0.000000  0.111111      8.000000
  0.500000  0.000000  0.111111      4.000000
  0.166667  0.166667  0.111111      8.000000
  0.333333  0.166667  0.111111     16.000000
  0.500000  0.166667  0.111111      8.000000
  0.333333  0.333333  0.111111      8.000000
  0.500000  0.333333  0.111111      8.000000
  0.500000  0.500000  0.111111      2.000000
  0.000000  0.000000  0.222222      2.000000
  0.166667  0.000000  0.222222      8.000000
  0.333333  0.000000  0.222222      8.000000
  0.500000  0.000000  0.222222      4.000000
  0.166667  0.166667  0.222222      8.000000
  0.333333  0.166667  0.222222     16.000000
  0.500000  0.166667  0.222222      8.000000
  0.333333  0.333333  0.222222      8.000000
  0.500000  0.333333  0.222222      8.000000
  0.500000  0.500000  0.222222      2.000000
  0.000000  0.000000  0.333333      2.000000
  0.166667  0.000000  0.333333      8.000000
  0.333333  0.000000  0.333333      8.000000
  0.500000  0.000000  0.333333      4.000000
  0.166667  0.166667  0.333333      8.000000
  0.333333  0.166667  0.333333     16.000000
  0.500000  0.166667  0.333333      8.000000
  0.333333  0.333333  0.333333      8.000000
  0.500000  0.333333  0.333333      8.000000
  0.500000  0.500000  0.333333      2.000000
  0.000000  0.000000  0.444444      2.000000
  0.166667  0.000000  0.444444      8.000000
  0.333333  0.000000  0.444444      8.000000
  0.500000  0.000000  0.444444      4.000000
  0.166667  0.166667  0.444444      8.000000
  0.333333  0.166667  0.444444     16.000000
  0.500000  0.166667  0.444444      8.000000
  0.333333  0.333333  0.444444      8.000000
  0.500000  0.333333  0.444444      8.000000
  0.500000  0.500000  0.444444      2.000000

 Following cartesian coordinates:
            Coordinates               Weight
  0.000000  0.000000  0.000000      1.000000
  0.037938  0.000000  0.000000      4.000000
  0.075876  0.000000  0.000000      4.000000
  0.113814  0.000000  0.000000      2.000000
  0.037938  0.037938  0.000000      4.000000
  0.075876  0.037938  0.000000      8.000000
  0.113814  0.037938  0.000000      4.000000
  0.075876  0.075876  0.000000      4.000000
  0.113814  0.075876  0.000000      4.000000
  0.113814  0.113814  0.000000      1.000000
  0.000000  0.000000  0.038306      2.000000
  0.037938  0.000000  0.038306      8.000000
  0.075876  0.000000  0.038306      8.000000
  0.113814  0.000000  0.038306      4.000000
  0.037938  0.037938  0.038306      8.000000
  0.075876  0.037938  0.038306     16.000000
  0.113814  0.037938  0.038306      8.000000
  0.075876  0.075876  0.038306      8.000000
  0.113814  0.075876  0.038306      8.000000
  0.113814  0.113814  0.038306      2.000000
  0.000000  0.000000  0.076612      2.000000
  0.037938  0.000000  0.076612      8.000000
  0.075876  0.000000  0.076612      8.000000
  0.113814  0.000000  0.076612      4.000000
  0.037938  0.037938  0.076612      8.000000
  0.075876  0.037938  0.076612     16.000000
  0.113814  0.037938  0.076612      8.000000
  0.075876  0.075876  0.076612      8.000000
  0.113814  0.075876  0.076612      8.000000
  0.113814  0.113814  0.076612      2.000000
  0.000000  0.000000  0.114919      2.000000
  0.037938  0.000000  0.114919      8.000000
  0.075876  0.000000  0.114919      8.000000
  0.113814  0.000000  0.114919      4.000000
  0.037938  0.037938  0.114919      8.000000
  0.075876  0.037938  0.114919     16.000000
  0.113814  0.037938  0.114919      8.000000
  0.075876  0.075876  0.114919      8.000000
  0.113814  0.075876  0.114919      8.000000
  0.113814  0.113814  0.114919      2.000000
  0.000000  0.000000  0.153225      2.000000
  0.037938  0.000000  0.153225      8.000000
  0.075876  0.000000  0.153225      8.000000
  0.113814  0.000000  0.153225      4.000000
  0.037938  0.037938  0.153225      8.000000
  0.075876  0.037938  0.153225     16.000000
  0.113814  0.037938  0.153225      8.000000
  0.075876  0.075876  0.153225      8.000000
  0.113814  0.075876  0.153225      8.000000
  0.113814  0.113814  0.153225      2.000000

 TETIRR: Found    489 inequivalent tetrahedra from     1944

 I would recommend the setting:
   dimension x,y,z NGX =    25 NGY =   25 NGZ =   16
 SYSTEM =  (Mn O2)2  (P4_2/mnm) ~  (Pearson
 POSCAR =  (Mn O2)2  (P4_2/mnm) ~  (Pearson #311740

 Startparameter for this run:
   NWRITE =      1    write-flag & timer
   PREC   = normal    normal or accurate (medium, high low for compatibility)
   ISTART =      0    job   : 0-new  1-cont  2-samecut
   ICHARG =     11    charge: 1-file 2-atom 10-const
   ISPIN  =      2    spin polarized calculation?
   LNONCOLLINEAR =      F non collinear calculations
   LSORBIT =      F    spin-orbit coupling
   INIWAV =      1    electr: 0-lowe 1-rand  2-diag
   LASPH  =      F    aspherical Exc in radial PAW
   METAGGA=      F    non-selfconsistent MetaGGA calc.

 Electronic Relaxation 1
   ENCUT  =  520.0 eV  38.22 Ry    6.18 a.u.   8.17  8.17  5.39*2*pi/ulx,y,z
   ENINI  =  520.0     initial cutoff
   ENAUG  =  605.4 eV  augmentation charge cutoff
   NELM   =     60;   NELMIN=  2; NELMDL= -5     # of ELM steps
   EDIFF  = 0.1E-03   stopping-criterion for ELM
   LREAL  =      F    real-space projection
[...]
   0.11381431  0.11381431  0.15322492       0.006

 k-points in reciprocal lattice and weights: Automatic mesh
   0.00000000  0.00000000  0.00000000       0.003
   0.16666667  0.00000000  0.00000000       0.012
   0.33333333  0.00000000  0.00000000       0.012
   0.50000000  0.00000000  0.00000000       0.006
   0.16666667  0.16666667  0.00000000       0.012
   0.33333333  0.16666667  0.00000000       0.025
   0.50000000  0.16666667  0.00000000       0.012
   0.33333333  0.33333333  0.00000000       0.012
   0.50000000  0.33333333  0.00000000       0.012
   0.50000000  0.50000000  0.00000000       0.003
   0.00000000  0.00000000  0.11111111       0.006
   0.16666667  0.00000000  0.11111111       0.025
   0.33333333  0.00000000  0.11111111       0.025
   0.50000000  0.00000000  0.11111111       0.012
   0.16666667  0.16666667  0.11111111       0.025
   0.33333333  0.16666667  0.11111111       0.049
   0.50000000  0.16666667  0.11111111       0.025
   0.33333333  0.33333333  0.11111111       0.025
   0.50000000  0.33333333  0.11111111       0.025
   0.50000000  0.50000000  0.11111111       0.006
   0.00000000  0.00000000  0.22222222       0.006
   0.16666667  0.00000000  0.22222222       0.025
   0.33333333  0.00000000  0.22222222       0.025
   0.50000000  0.00000000  0.22222222       0.012
   0.16666667  0.16666667  0.22222222       0.025
   0.33333333  0.16666667  0.22222222       0.049
   0.50000000  0.16666667  0.22222222       0.025
   0.33333333  0.33333333  0.22222222       0.025
   0.50000000  0.33333333  0.22222222       0.025
   0.50000000  0.50000000  0.22222222       0.006
   0.00000000  0.00000000  0.33333333       0.006
   0.16666667  0.00000000  0.33333333       0.025
   0.33333333  0.00000000  0.33333333       0.025
   0.50000000  0.00000000  0.33333333       0.012
   0.16666667  0.16666667  0.33333333       0.025
   0.33333333  0.16666667  0.33333333       0.049
   0.50000000  0.16666667  0.33333333       0.025
   0.33333333  0.33333333  0.33333333       0.025
   0.50000000  0.33333333  0.33333333       0.025
   0.50000000  0.50000000  0.33333333       0.006
   0.00000000  0.00000000  0.44444444       0.006
   0.16666667  0.00000000  0.44444444       0.025
   0.33333333  0.00000000  0.44444444       0.025
   0.50000000  0.00000000  0.44444444       0.012
   0.16666667  0.16666667  0.44444444       0.025
   0.33333333  0.16666667  0.44444444       0.049
   0.50000000  0.16666667  0.44444444       0.025
   0.33333333  0.33333333  0.44444444       0.025
   0.50000000  0.33333333  0.44444444       0.025
   0.50000000  0.50000000  0.44444444       0.006

 position of ions in fractional coordinates (direct lattice)
   0.30542108  0.30542108  0.00000000
   0.80542108  0.19457892  0.50000000
   0.19457892  0.80542108  0.50000000
   0.69457892  0.69457892  0.00000000
   0.00000000  0.00000000  0.00000000
   0.50000000  0.50000000  0.50000000

 position of ions in cartesian coordinates  (Angst):
   1.34175169  1.34175169  0.00000000
   3.53831203  0.85480866  1.45030080
   0.85480866  3.53831203  1.45030080
   3.05136900  3.05136900  0.00000000
   0.00000000  0.00000000  0.00000000
   2.19656034  2.19656034  1.45030080

 k-point  1 :   0.0000 0.0000 0.0000  plane waves:    1503
 k-point  2 :   0.1667 0.0000 0.0000  plane waves:    1513
 k-point  3 :   0.3333 0.0000 0.0000  plane waves:    1504
 k-point  4 :   0.5000 0.0000 0.0000  plane waves:    1512
 k-point  5 :   0.1667 0.1667 0.0000  plane waves:    1507
 k-point  6 :   0.3333 0.1667 0.0000  plane waves:    1517
 k-point  7 :   0.5000 0.1667 0.0000  plane waves:    1508
 k-point  8 :   0.3333 0.3333 0.0000  plane waves:    1516
 k-point  9 :   0.5000 0.3333 0.0000  plane waves:    1514
 k-point 10 :   0.5000 0.5000 0.0000  plane waves:    1520
 k-point 11 :   0.0000 0.0000 0.1111  plane waves:    1495
 k-point 12 :   0.1667 0.0000 0.1111  plane waves:    1509
 k-point 13 :   0.3333 0.0000 0.1111  plane waves:    1515
 k-point 14 :   0.5000 0.0000 0.1111  plane waves:    1514
 k-point 15 :   0.1667 0.1667 0.1111  plane waves:    1514
 k-point 16 :   0.3333 0.1667 0.1111  plane waves:    1508
 k-point 17 :   0.5000 0.1667 0.1111  plane waves:    1508
 k-point 18 :   0.3333 0.3333 0.1111  plane waves:    1507
 k-point 19 :   0.5000 0.3333 0.1111  plane waves:    1514
 k-point 20 :   0.5000 0.5000 0.1111  plane waves:    1520
 k-point 21 :   0.0000 0.0000 0.2222  plane waves:    1507
 k-point 22 :   0.1667 0.0000 0.2222  plane waves:    1505
 k-point 23 :   0.3333 0.0000 0.2222  plane waves:    1502
 k-point 24 :   0.5000 0.0000 0.2222  plane waves:    1504
 k-point 25 :   0.1667 0.1667 0.2222  plane waves:    1507
 k-point 26 :   0.3333 0.1667 0.2222  plane waves:    1506
 k-point 27 :   0.5000 0.1667 0.2222  plane waves:    1504
 k-point 28 :   0.3333 0.3333 0.2222  plane waves:    1519
 k-point 29 :   0.5000 0.3333 0.2222  plane waves:    1520
 k-point 30 :   0.5000 0.5000 0.2222  plane waves:    1528
 k-point 31 :   0.0000 0.0000 0.3333  plane waves:    1511
 k-point 32 :   0.1667 0.0000 0.3333  plane waves:    1500
 k-point 33 :   0.3333 0.0000 0.3333  plane waves:    1502
 k-point 34 :   0.5000 0.0000 0.3333  plane waves:    1500
 k-point 35 :   0.1667 0.1667 0.3333  plane waves:    1498
 k-point 36 :   0.3333 0.1667 0.3333  plane waves:    1505
 k-point 37 :   0.5000 0.1667 0.3333  plane waves:    1510
 k-point 38 :   0.3333 0.3333 0.3333  plane waves:    1512
 k-point 39 :   0.5000 0.3333 0.3333  plane waves:    1510
 k-point 40 :   0.5000 0.5000 0.3333  plane waves:    1500
 k-point 41 :   0.0000 0.0000 0.4444  plane waves:    1522
 k-point 42 :   0.1667 0.0000 0.4444  plane waves:    1506
 k-point 43 :   0.3333 0.0000 0.4444  plane waves:    1496
 k-point 44 :   0.5000 0.0000 0.4444  plane waves:    1514
 k-point 45 :   0.1667 0.1667 0.4444  plane waves:    1503
 k-point 46 :   0.3333 0.1667 0.4444  plane waves:    1491
 k-point 47 :   0.5000 0.1667 0.4444  plane waves:    1498
 k-point 48 :   0.3333 0.3333 0.4444  plane waves:    1506
 k-point 49 :   0.5000 0.3333 0.4444  plane waves:    1504
 k-point 50 :   0.5000 0.5000 0.4444  plane waves:    1496

 maximum and minimum number of plane-waves per node :       393      364

 maximum number of plane-waves:      1528
 maximum index in each direction:
   IXMAX=    8   IYMAX=    8   IZMAX=    5
   IXMIN=   -8   IYMIN=   -8   IZMIN=   -5

 WARNING: aliasing errors must be expected set NGX to  34 to avoid them
 WARNING: aliasing errors must be expected set NGY to  34 to avoid them
 WARNING: aliasing errors must be expected set NGZ to  22 to avoid them
 aliasing errors are usually negligible using standard VASP settings
 and one can safely disregard these warnings

 parallel 3D FFT for wavefunctions:
    minimum data exchange during FFTs selected (reduces bandwidth)
 parallel 3D FFT for charge:
    minimum data exchange during FFTs selected (reduces bandwidth)

 initial charge density was supplied:
 number of electron      38.0000112 magnetization      -0.0000000
 keeping initial charge density in first step

 Maximum index for augmentation-charges          461 (set IRDMAX)

 First call to EWALD:  gamma=   0.463
 Maximum number of real-space cells 2x 2x 3
 Maximum number of reciprocal cells 3x 3x 2

 FEWALD executed in parallel

----------------------------------------- Iteration    1(   1)  ---------------------------------------

 BZINTS: Fermi energy: 19.551257; 38.000000 electrons
         Band energy: 310.838086;  BLOECHL correction: -0.297306

 eigenvalue-minimisations  :  4840
 total energy-change (2. order) : 0.3871182E+03  (-0.1908238E+04)
 number of electron      38.0000112 magnetization      -0.0000000
 augmentation part       38.0000112 magnetization      -0.0000000

 Free energy of the ion-electron system (eV)
  alpha Z        PSCENC =       169.95516757
  Ewald energy   TEWEN  =     -2223.24942048
  -1/2 Hartree   DENC   =      -555.08203787
  -exchange  EXHF       =         0.00000000
  -V(xc)+E(xc)   XCENC  =        96.24744779
  PAW double counting   =      3298.65768100    -3265.53398002
  entropy T*S    EENTRO =         0.00000000
  eigenvalues    EBANDS =       310.83808637
  atomic energy  EATOM  =      2555.28521479
  free energy    TOTEN  =       387.11815915 eV

  energy without entropy =      387.11815915  energy(sigma->0) =      387.11815915

[...]

 BZINTS: Fermi energy:  6.222034; 38.000000 electrons
         Band energy: -65.306906;  BLOECHL correction: -0.190493

 eigenvalue-minimisations  :  5368
 total energy-change (2. order) :-0.3761450E+03  (-0.3643846E+03)
 number of electron      38.0000112 magnetization      -0.0000000
 augmentation part       38.0000112 magnetization      -0.0000000

[...]

 BZINTS: Fermi energy:  4.330123; 38.000000 electrons
         Band energy:-117.528458;  BLOECHL correction: -0.036993

[...]

----------------------------------------- Iteration    1(   7)  ---------------------------------------

[...]

 eigenvalue-minimisations  :  5872
 total energy-change (2. order) :-0.5337393E-04  (-0.5337381E-04)
 number of electron      38.0000112 magnetization      -0.0000000
 augmentation part       38.0000112 magnetization      -0.0000000

 Free energy of the ion-electron system (eV)
  alpha Z        PSCENC =       169.95516757
  Ewald energy   TEWEN  =     -2223.24942048
  -1/2 Hartree   DENC   =      -555.08203787
  -exchange  EXHF       =         0.00000000
  -V(xc)+E(xc)   XCENC  =        96.24744779
  PAW double counting   =      3298.65768100    -3265.53398002
  entropy T*S    EENTRO =         0.00000000
  eigenvalues    EBANDS =      -120.96243259
  atomic energy  EATOM  =      2555.28521479
  free energy    TOTEN  =       -44.68235981 eV

  energy without entropy =      -44.68235981  energy(sigma->0) =      -44.68235981

 average (electrostatic) potential at core
  the test charge radii are     0.7215  1.0210
  (the norm of the test charge is              1.0000)
       1 -71.1692       2 -71.1692       3 -71.1692       4 -71.1692       5 -47.2444
       6 -47.2444

 E-fermi :   3.6610     XC(G=0): -12.0705     alpha+bet :-11.3921

 spin component 1

 k-point   1 :       0.0000    0.0000    0.0000
  band No.  band energies     occupation
      1     -15.8820      1.00000
      2     -13.9754      1.00000
      3     -13.5897      1.00000
      4     -13.5688      1.00000
      5      -4.2883      1.00000
      6      -3.1573      1.00000
      7      -2.9543      1.00000
      8      -2.1198      1.00000
      9      -1.7141      1.00000
     10      -0.0371      1.00000
     11      -0.0020      1.00000
     12       0.0786      1.00000
     13       0.0993      1.00000
     14       0.3959      1.00000
     15       0.9924      1.00000
     16       2.3009      1.00000
     17       2.9435      1.00000
     18       2.9889      1.00000
     19       3.5830      1.00000
     20       3.7512      0.00000
     21       4.8743      0.00000
     22       5.7697      0.00000
     23       6.7431      0.00000
     24       7.1446      0.00000

[...]

 spin component 2

[...]

 k-point  50 :       0.5000    0.5000    0.4444
  band No.  band energies     occupation
      1     -14.1021      1.00000
      2     -14.0952      1.00000
      3     -13.9412      1.00000
      4     -13.8359      1.00000
      5      -3.4426      1.00000
      6      -2.9236      1.00000
      7      -2.7037      1.00000
      8      -2.1580      1.00000
      9      -1.9152      1.00000
     10      -1.1798      1.00000
     11      -0.8270      1.00000
     12      -0.6974      1.00000
     13      -0.0473      1.00000
     14       0.0142      1.00000
     15       0.8730      1.00000
     16       2.0547      1.00000
     17       2.4997      1.00000
     18       2.8562      1.00000
     19       2.9310      1.00000
     20       5.2138      0.00000
     21       5.4342      0.00000
     22       5.9310      0.00000
     23       6.3740      0.00000
     24       6.3742      0.00000

 soft charge-density along one line, spin component           1
         0         1         2         3         4         5         6         7         8         9
 total charge-density along one line

 soft charge-density along one line, spin component           2
         0         1         2         3         4         5         6         7         8         9
 total charge-density along one line

------------------------ aborting loop because EDIFF is reached ----------------------------------------

 total charge

# of ion     s       p       d       tot
  1        1.564   3.439   0.000   5.003
  2        1.561   3.464   0.000   5.026
  3        1.561   3.464   0.000   5.026
  4        1.564   3.439   0.000   5.003
  5        0.366   0.582   4.834   5.782
  6        0.365   0.591   4.780   5.736
tot        6.982  14.980   9.614  31.576

 magnetization (x)

[...]

  FORCE on cell =-STRESS in cart. coord.  units (eV):
  Direction    XX          YY          ZZ          XY          YZ          ZX
  Alpha Z   169.95517   169.95517   169.95517
  Ewald    -826.95749  -826.95749  -569.33655    -0.00000    -0.00000    -0.00000
  Hartree   150.21244   150.21244   254.63122    -0.00000    -0.00000    -0.00000
  E(xc)    -184.92002  -184.92002  -185.32247    -0.00000    -0.00000     0.00000
  Local      69.49447    69.49447  -269.92021    -0.00000    -0.00000    -0.00000
  n-local  -131.44602  -131.67828  -125.79575     0.18512    -0.33336     0.07718
  augment    88.89785    88.89785    85.64975     0.00000    -0.00000     0.00000
  Kinetic   665.27050   664.50199   640.12330    -1.20597     0.41975    -0.81126
  Fock        0.00000     0.00000     0.00000     0.00000     0.00000     0.00000
  Total       0.00651     0.00651    -0.01553     0.00000     0.00000     0.00000
  in kB       0.18640     0.18640    -0.44454     0.00000     0.00000     0.00000

 VOLUME and BASIS-vectors are now :
  energy-cutoff  :      520.00
  volume of cell :       55.98
      direct lattice vectors                 reciprocal lattice vectors
     4.393120689  0.000000000  0.000000000     0.227628620  0.000000000  0.000000000
     0.000000000  4.393120689  0.000000000     0.000000000  0.227628620  0.000000000
     0.000000000  0.000000000  2.900601591     0.000000000  0.000000000  0.344756068

  length of vectors
     4.393120689  4.393120689  2.900601591     0.227628620  0.227628620  0.344756068

 FORCES acting on ions
    electron-ion (+dipol)            ewald-force                    non-local-force                 convergence-correction
   0.263E+02 0.263E+02 0.772E-05   -.293E+02 -.293E+02 -.455E-14   0.295E+01 0.295E+01 0.127E-16   -.768E-02 -.768E-02 -.720E-12
   0.263E+02 -.263E+02 0.426E-12   -.293E+02 0.293E+02 -.304E-14   0.295E+01 -.295E+01 -.180E-17   -.768E-02 0.768E-02 0.148E-11
   -.263E+02 0.263E+02 0.180E-11   0.293E+02 -.293E+02 -.279E-14   -.295E+01 0.295E+01 0.557E-17   0.768E-02 -.768E-02 0.247E-12
   -.263E+02 -.263E+02 -.772E-05   0.293E+02 0.293E+02 -.193E-14   -.295E+01 -.295E+01 0.269E-17   0.768E-02 0.768E-02 -.133E-10
   0.109E-13 0.430E-14 0.422E-13   -.282E-14 0.258E-13 0.267E-14   -.627E-21 -.817E-21 0.118E-20   -.320E-11 -.943E-12 -.113E-11
   0.540E-12 0.107E-11 0.237E-12   -.398E-13 0.168E-13 0.268E-14   -.568E-21 -.940E-21 0.890E-21   0.843E-11 0.335E-11 0.206E-11
   0.174E-11 0.159E-12 0.602E-11   -.142E-13 0.141E-13 -.696E-14   0.444E-15 -.176E-20 0.192E-16   0.156E-10 0.959E-11 -.114E-10

 POSITION                                       TOTAL-FORCE (eV/Angst)
      1.34175      1.34175      0.00000         0.003036      0.003036     -0.000000
      3.53831      0.85481      1.45030         0.003036     -0.003036      0.000000
      0.85481      3.53831      1.45030        -0.003036      0.003036     -0.000000
      3.05137      3.05137      0.00000        -0.003036     -0.003036      0.000000
      0.00000      0.00000      0.00000        -0.000000      0.000000      0.000000
      2.19656      2.19656      1.45030        -0.000000     -0.000000      0.000000
    total drift:                                0.000000      0.000000     -0.000000

  FREE ENERGIE OF THE ION-ELECTRON SYSTEM (eV)
  free  energy   TOTEN  =       -44.68235981 eV

  energy  without entropy=      -44.68235981  energy(sigma->0) =      -44.68235981

 total charge

[...]

 magnetization (x)

# of ion     s       p       d       tot
  1        0.000  -0.013   0.000  -0.013
  2        0.001  -0.003   0.000  -0.002
  3        0.001  -0.003   0.000  -0.002
  4        0.000  -0.013   0.000  -0.013
  5        0.019   0.025   2.938   2.982
  6       -0.016  -0.028  -2.913  -2.956
tot        0.007  -0.035   0.025  -0.003

 BZINTS: Fermi energy:  3.660965; 38.000000 electrons
         Band energy:-120.962433;  BLOECHL correction:  0.000000