 vasp.5.3.3 18Dez12 (build May 12 2016 12:04:25) complex

 executed on             LinuxIFC date 2019.05.18  12:52:33

 INCAR:
 POTCAR:    PAW_PBE Mn 06Sep2000
 POTCAR:    PAW_PBE O 08Apr2002
 POTCAR:    PAW_PBE Mn 06Sep2000

 POTCAR:    PAW_PBE O 08Apr2002

  PAW_PBE Mn 06Sep2000                  :
  PAW_PBE O 08Apr2002                   :

 POSCAR: (Mn O2)4  (P1) ~ POSCAR_1 (VASP)
  positions in direct lattice
  velocities in cartesian coordinates
 exchange correlation table for  LEXCH =       14
   RHO(1)=    0.500       N(1)  =     2000
   RHO(2)=  100.500       N(2)  =     4000

 ion  position               nearest neighbor table
   1  0.000  0.000  0.000-  10 1.92   9 1.92   8 1.94   7 1.94   6 2.00   5 2.00   4 2.85   4 2.85
                             3 2.95   3 2.95   2 2.95   2 2.95
   2  0.000  0.500  0.000-  12 1.92  11 1.92   6 1.94   5 1.94   8 2.00   7 2.00   3 2.85   3 2.85
                             4 2.95   4 2.95   1 2.95   1 2.95
   3  0.500  0.000  0.000-   6 1.92   5 1.92  12 1.94  11 1.94  10 2.00   9 2.00   2 2.85   2 2.85
                             1 2.95   1 2.95   4 2.95   4 2.95
   4  0.500  0.500  0.000-   8 1.92   7 1.92  10 1.94   9 1.94  12 2.00  11 2.00   1 2.85   1 2.85
                             2 2.95   2 2.95   3 2.95   3 2.95
   5  0.194  0.813  0.140-   3 1.92   2 1.94   1 2.00
   6  0.806  0.187  0.860-   3 1.92   2 1.94   1 2.00
   7  0.194  0.313  0.140-   4 1.92   1 1.94   2 2.00
   8  0.806  0.687  0.860-   4 1.92   1 1.94   2 2.00
   9  0.694  0.813  0.140-   1 1.92   4 1.94   3 2.00
  10  0.306  0.187  0.860-   1 1.92   4 1.94   3 2.00
  11  0.694  0.313  0.140-   2 1.92   3 1.94   4 2.00
  12  0.306  0.687  0.860-   2 1.92   3 1.94   4 2.00

  LATTYP: Found a triclinic cell.
 ALAT       =    15.3805926721
 B/A-ratio  =     0.9828776718
 C/A-ratio  =     1.3104245900
 COS(alpha) =     0.0034550046
 COS(beta)  =     0.5787308293
 COS(gamma) =     0.8162759626

  Lattice vectors:

 A1 = ( -14.5474819000,  -4.9933356900,   0.0000000000)
 A2 = ( -13.3037208000,   0.7493140300,   7.1400644500)
 A3 = (  -8.3901220100, -11.4852994400, -14.2801289000)

Analysis of symmetry for initial positions (statically):
 Subroutine PRICEL returns following result:

[...]

   4 primitive cells build up your supercell.

 Routine SETGRP: Setting up the symmetry group for a
 triclinic supercell.

 Subroutine GETGRP returns: Found  2 space group operations
 (whereof  2 operations were pure point group operations)
 out of a pool of  2 trial point group operations.

The static configuration has the point symmetry S_2 .

Analysis of symmetry for dynamics (positions and initial velocities):
 Subroutine PRICEL returns following result:

  LATTYP: Found a triclinic cell.
 ALAT       =     2.9512999050
 B/A-ratio  =     1.0011520647
 C/A-ratio  =     2.6737552581
 COS(alpha) =     0.0073752884
 COS(beta)  =     0.3636602222
 COS(gamma) =     0.5347949939

  Lattice vectors:

 A1 = (   2.9512999050,   0.0000000000,   0.0000000000)
 A2 = (   1.5801587650,  -2.4966678450,   0.0000000000)
 A3 = (   2.8696623200,   1.7473538150,  -7.1400644500)

   4 primitive cells build up your supercell.

 Routine SETGRP: Setting up the symmetry group for a
 triclinic supercell.

 Subroutine GETGRP returns: Found  2 space group operations
 (whereof  2 operations were pure point group operations)
 out of a pool of  2 trial point group operations.

The dynamic configuration has the point symmetry S_2 .

Analysis of magnetic symmetry:

 Subroutine MAGSYM returns: Found  2 space group operations
 (whereof  2 operations were pure point group operations)
 out of a pool of  2 trial space group operations
 (whereof  2 operations were pure point group operations)
 and found also     4 'primitive' translations

The magnetic configuration has the point symmetry S_2 .

 irot  :   1
 isymop:   1   0   0
           0   1   0
           0   0   1

 gtrans:     0.0000000     0.0000000     0.0000000

 ptrans:     0.0000000     0.0000000     0.0000000
 rotmap:
 (   1->   1)  (   2->   2)  (   3->   3)  (   4->   4)  (   5->   5)
 (   6->   6)  (   7->   7)  (   8->   8)  (   9->   9)  (  10->  10)
 (  11->  11)  (  12->  12)

[...]

 irot  :   2
 isymop:  -1   0   0
           0  -1   0
           0   0  -1

 gtrans:     0.0000000     0.0000000     0.0000000

[...]

 ptrans:     0.5000000     0.5000000     0.0000000
 rotmap:
 (   1->   4)  (   2->   3)  (   3->   2)  (   4->   1)  (   5->  12)
 (   6->  11)  (   7->  10)  (   8->   9)  (   9->   8)  (  10->   7)
 (  11->   6)  (  12->   5)

 KPOINTS: Automatic mesh

Automatic generation of k-mesh.
Space group operators:
 irot       det(A)        alpha          n_x          n_y          n_z        tau_x        tau_y        tau_z
    1     1.000000     0.000000     1.000000     0.000000     0.000000     0.000000     0.000000     0.000000
    2    -1.000000     0.000000     1.000000     0.000000     0.000000     0.000000     0.000000     0.000000

 Subroutine IBZKPT returns following result:

 Found     76 irreducible k-points:

 Following reciprocal coordinates:
            Coordinates               Weight
  0.000000  0.000000  0.000000      1.000000
  0.166667  0.000000 -0.000000      2.000000
  0.333333  0.000000  0.000000      2.000000
  0.500000  0.000000 -0.000000      1.000000
  0.000000  0.166667  0.000000      2.000000
  0.166667  0.166667 -0.000000      2.000000
  0.333333  0.166667 -0.000000      2.000000
  0.500000  0.166667 -0.000000      2.000000
 -0.333333  0.166667  0.000000      2.000000
 -0.166667  0.166667  0.000000      2.000000
  0.000000  0.333333 -0.000000      2.000000
  0.166667  0.333333 -0.000000      2.000000
  0.333333  0.333333 -0.000000      2.000000
  0.500000  0.333333 -0.000000      2.000000
 -0.333333  0.333333 -0.000000      2.000000
 -0.166667  0.333333 -0.000000      2.000000
  0.000000  0.500000 -0.000000      1.000000
  0.166667  0.500000 -0.000000      2.000000
  0.333333  0.500000 -0.000000      2.000000
  0.500000  0.500000 -0.000000      1.000000
  0.000000  0.000000  0.250000      2.000000
  0.166667  0.000000  0.250000      2.000000
  0.333333  0.000000  0.250000      2.000000
  0.500000  0.000000  0.250000      2.000000
 -0.333333 -0.000000  0.250000      2.000000
 -0.166667 -0.000000  0.250000      2.000000
  0.000000  0.166667  0.250000      2.000000
  0.166667  0.166667  0.250000      2.000000
  0.333333  0.166667  0.250000      2.000000
  0.500000  0.166667  0.250000      2.000000
 -0.333333  0.166667  0.250000      2.000000
 -0.166667  0.166667  0.250000      2.000000
  0.000000  0.333333  0.250000      2.000000
  0.166667  0.333333  0.250000      2.000000
  0.333333  0.333333  0.250000      2.000000
  0.500000  0.333333  0.250000      2.000000
 -0.333333  0.333333  0.250000      2.000000
 -0.166667  0.333333  0.250000      2.000000
  0.000000  0.500000  0.250000      2.000000
  0.166667  0.500000  0.250000      2.000000
  0.333333  0.500000  0.250000      2.000000
  0.500000  0.500000  0.250000      2.000000
 -0.333333  0.500000  0.250000      2.000000
 -0.166667  0.500000  0.250000      2.000000
  0.000000 -0.333333  0.250000      2.000000
  0.166667 -0.333333  0.250000      2.000000
  0.333333 -0.333333  0.250000      2.000000
  0.500000 -0.333333  0.250000      2.000000
 -0.333333 -0.333333  0.250000      2.000000
 -0.166667 -0.333333  0.250000      2.000000
  0.000000 -0.166667  0.250000      2.000000
  0.166667 -0.166667  0.250000      2.000000
  0.333333 -0.166667  0.250000      2.000000
  0.500000 -0.166667  0.250000      2.000000
 -0.333333 -0.166667  0.250000      2.000000
 -0.166667 -0.166667  0.250000      2.000000
  0.000000  0.000000  0.500000      1.000000
  0.166667  0.000000  0.500000      2.000000
  0.333333  0.000000  0.500000      2.000000
  0.500000  0.000000  0.500000      1.000000
  0.000000  0.166667  0.500000      2.000000
  0.166667  0.166667  0.500000      2.000000
  0.333333  0.166667  0.500000      2.000000
  0.500000  0.166667  0.500000      2.000000
 -0.333333  0.166667  0.500000      2.000000
 -0.166667  0.166667  0.500000      2.000000
  0.000000  0.333333  0.500000      2.000000
  0.166667  0.333333  0.500000      2.000000
  0.333333  0.333333  0.500000      2.000000
  0.500000  0.333333  0.500000      2.000000
 -0.333333  0.333333  0.500000      2.000000
 -0.166667  0.333333  0.500000      2.000000
  0.000000  0.500000  0.500000      1.000000
  0.166667  0.500000  0.500000      2.000000
  0.333333  0.500000  0.500000      2.000000
  0.500000  0.500000  0.500000      1.000000

 Following cartesian coordinates:
            Coordinates               Weight
  0.000000  0.000000  0.000000      1.000000
  0.028236  0.017871  0.004051      2.000000
  0.056472  0.035742  0.008101      2.000000
  0.084708  0.053613  0.012152      1.000000
  0.000000  0.033378 -0.003503      2.000000
  0.028236  0.051249  0.000548      2.000000
  0.056472  0.069120  0.004598      2.000000
  0.084708  0.086990  0.008649      2.000000
 -0.056472 -0.002364 -0.011604      2.000000
 -0.028236  0.015507 -0.007553      2.000000
  0.000000  0.066756 -0.007006      2.000000
  0.028236  0.084626 -0.002955      2.000000
  0.056472  0.102497  0.001096      2.000000
  0.084708  0.120368  0.005146      2.000000
 -0.056472  0.031014 -0.015107      2.000000
 -0.028236  0.048885 -0.011056      2.000000
  0.000000  0.100133 -0.010509      1.000000
  0.028236  0.118004 -0.006458      2.000000
  0.056472  0.135875 -0.002407      2.000000
  0.084708  0.153746  0.001643      1.000000
  0.000000  0.000000  0.035014      2.000000
  0.028236  0.017871  0.039064      2.000000
  0.056472  0.035742  0.043115      2.000000
  0.084708  0.053613  0.047166      2.000000
 -0.056472 -0.035742  0.026912      2.000000
 -0.028236 -0.017871  0.030963      2.000000
  0.000000  0.033378  0.031511      2.000000
  0.028236  0.051249  0.035561      2.000000
  0.056472  0.069120  0.039612      2.000000
  0.084708  0.086990  0.043663      2.000000
 -0.056472 -0.002364  0.023410      2.000000
 -0.028236  0.015507  0.027460      2.000000
  0.000000  0.066756  0.028008      2.000000
  0.028236  0.084626  0.032059      2.000000
  0.056472  0.102497  0.036109      2.000000
  0.084708  0.120368  0.040160      2.000000
 -0.056472  0.031014  0.019907      2.000000
 -0.028236  0.048885  0.023957      2.000000
  0.000000  0.100133  0.024505      2.000000
  0.028236  0.118004  0.028556      2.000000
  0.056472  0.135875  0.032606      2.000000
  0.084708  0.153746  0.036657      2.000000
 -0.056472  0.064392  0.016404      2.000000
 -0.028236  0.082263  0.020455      2.000000
  0.000000 -0.066756  0.042019      2.000000
  0.028236 -0.048885  0.046070      2.000000
  0.056472 -0.031014  0.050121      2.000000
  0.084708 -0.013143  0.054171      2.000000
 -0.056472 -0.102497  0.033918      2.000000
 -0.028236 -0.084626  0.037969      2.000000
  0.000000 -0.033378  0.038517      2.000000
  0.028236 -0.015507  0.042567      2.000000
  0.056472  0.002364  0.046618      2.000000
  0.084708  0.020235  0.050668      2.000000
 -0.056472 -0.069120  0.030415      2.000000
 -0.028236 -0.051249  0.034466      2.000000
  0.000000  0.000000  0.070027      1.000000
[...]
     31      -3.8000      1.00000
     32      -3.6106      1.00000
     33      -3.5755      1.00000
     34      -3.5487      1.00000
     35      -3.4616      1.00000
     36      -3.1699      1.00003
     37      -2.9402      1.00743
     38      -2.8067      1.03329
     39      -0.7928     -0.00000
     40      -0.3977     -0.00000
     41       0.1344     -0.00000
     42       0.1877     -0.00000
     43       0.7151     -0.00000
     44       1.2381     -0.00000
     45       1.3062     -0.00000
     46       1.3880     -0.00000
     47       1.5685     -0.00000
     48       1.6174     -0.00000

[...]

 soft charge-density along one line, spin component           1
         0         1         2         3         4         5         6         7         8         9
 total charge-density along one line

[...]

------------------------ aborting loop because EDIFF is reached ----------------------------------------

  FORCE on cell =-STRESS in cart. coord.  units (eV):
  Direction    XX          YY          ZZ          XY          YZ          ZX
  Alpha Z   180.83916   180.83916   180.83916
  Ewald    2195.04048  2213.73181 -5343.89970    43.07870    20.93398   -67.98972
  Hartree  3402.37960  3414.13097 -2736.62394    18.49913     6.87617   -24.49206
  E(xc)    -367.73996  -367.85992  -367.12607    -0.34420    -0.14644     0.52742
  Local   -6620.75838 -6651.29341  7009.41308   -60.26993   -26.67323    90.96439
  n-local  -256.18044  -255.80242  -265.82396     1.06185     0.67181    -1.91105
  augment   172.61578   172.57323   177.80026     0.20591    -0.13548    -0.25900
  Kinetic  1282.53304  1286.87715  1337.94573     2.90255    -1.92344    -0.13778
  Fock        0.00000     0.00000     0.00000     0.00000     0.00000     0.00000
  Total     -11.27072    -6.80341    -7.47545     5.13401    -0.39663    -3.29781
  in kB     -85.80762   -51.79657   -56.91304    39.08689    -3.01969   -25.10729

 VOLUME and BASIS-vectors are now :
  energy-cutoff  :      520.00
  volume of cell :      210.44
      direct lattice vectors                 reciprocal lattice vectors
     5.902599810  0.000000000  0.000000000     0.169416873  0.107225139  0.024303628
    -3.160317530  4.993335690  0.000000000     0.000000000  0.200266928 -0.021017012
    -1.498521180  0.749314030  7.140064450     0.000000000  0.000000000  0.140054758

[...]

 FORCES acting on ions
    electron-ion (+dipol)            ewald-force                    non-local-force                 convergence-correction
   0.257E-06 -.103E-06 0.426E-06   -.256E-05 0.103E-05 -.436E-05   0.760E-23 -.138E-21 -.305E-22   0.571E-08 -.251E-08 0.925E-06
   0.257E-06 -.103E-06 0.426E-06   -.256E-05 0.103E-05 -.436E-05   -.237E-21 -.136E-21 0.135E-21   0.571E-08 -.251E-08 0.925E-06
   0.257E-06 -.103E-06 0.426E-06   -.256E-05 0.103E-05 -.436E-05   0.392E-22 -.164E-21 -.777E-22   0.571E-08 -.251E-08 0.925E-06
   0.257E-06 -.103E-06 0.426E-06   -.256E-05 0.103E-05 -.436E-05   -.132E-21 0.295E-22 -.325E-22   0.571E-08 -.251E-08 0.925E-06
   0.694E+01 -.212E+01 -.432E+03   -.853E+01 0.263E+01 0.457E+03   0.117E+01 -.553E+00 -.259E+02   -.934E-04 0.334E-03 0.256E-01
   -.694E+01 0.212E+01 0.432E+03   0.853E+01 -.263E+01 -.457E+03   -.117E+01 0.553E+00 0.259E+02   0.934E-04 -.334E-03 -.256E-01
   0.694E+01 -.212E+01 -.432E+03   -.853E+01 0.263E+01 0.457E+03   0.117E+01 -.553E+00 -.259E+02   -.931E-04 0.330E-03 0.256E-01
   -.694E+01 0.212E+01 0.432E+03   0.853E+01 -.263E+01 -.457E+03   -.117E+01 0.553E+00 0.259E+02   0.931E-04 -.330E-03 -.256E-01
   0.694E+01 -.212E+01 -.432E+03   -.853E+01 0.263E+01 0.457E+03   0.117E+01 -.553E+00 -.259E+02   -.934E-04 0.334E-03 0.256E-01
   -.694E+01 0.212E+01 0.432E+03   0.853E+01 -.263E+01 -.457E+03   -.117E+01 0.553E+00 0.259E+02   0.934E-04 -.334E-03 -.256E-01
   0.694E+01 -.212E+01 -.432E+03   -.853E+01 0.263E+01 0.457E+03   0.117E+01 -.553E+00 -.259E+02   -.931E-04 0.330E-03 0.256E-01
   -.694E+01 0.212E+01 0.432E+03   0.853E+01 -.263E+01 -.457E+03   -.117E+01 0.553E+00 0.259E+02   0.931E-04 -.330E-03 -.256E-01
   0.676E-04 -.347E-04 -.404E-03   0.409E-13 -.711E-14 0.568E-13   0.000E+00 0.000E+00 -.142E-13   -.611E-07 0.318E-07 0.848E-05

 POSITION                                       TOTAL-FORCE (eV/Angst)
      0.00000      0.00000      0.00000         0.000000      0.000000      0.000000
     -1.58016      2.49667      0.00000         0.000000      0.000000      0.000000
      2.95130      0.00000      0.00000        -0.000000      0.000000      0.000000
      1.37114      2.49667      0.00000         0.000000      0.000000      0.000000
     -1.63276      4.16593      0.99675        -0.413224     -0.049077     -0.915270
      2.87652      1.57672      6.14331         0.413224      0.049077      0.915270
     -0.05260      1.66927      0.99675        -0.413224     -0.049077     -0.915270
      1.29636      4.07338      6.14331         0.413224      0.049077      0.915270
      1.31854      4.16593      0.99675        -0.413224     -0.049077     -0.915270
     -0.07478      1.57672      6.14331         0.413224      0.049077      0.915270
      2.89870      1.66927      0.99675        -0.413224     -0.049077     -0.915270
     -1.65494      4.07338      6.14331         0.413224      0.049077      0.915270
    total drift:                                0.000068     -0.000035     -0.000396

  FREE ENERGIE OF THE ION-ELECTRON SYSTEM (eV)
  free  energy   TOTEN  =       -88.55153266 eV

  energy  without entropy=      -88.57583988  energy(sigma->0) =      -88.55963506

[...]

  free energy =  -0.918242429532E+02  energy without entropy=  -0.918505309584E+02

[...]

 d Force =-0.8175808E-01[-0.537E+00, 0.374E+00]  d Energy =-0.5588943E-01-0.259E-01
 d Force =-0.1633527E+03[-0.172E+03,-0.155E+03]  d Ewald  =-0.1696765E+03 0.632E+01

 Steepest descent step on ions:
 trial-energy change:    0.055889  1 .order    0.234046   -1.612206    2.080298
  (g-gl).g = 0.161E+01      g.g   = 0.161E+01  gl.gl    = 0.000E+00
 g(Force)  = 0.390E+00   g(Stress)= 0.122E+01 ortho     = 0.000E+00
 gamma     =   0.00000
 trial     =   1.00000
 opt step  =   0.50896  (harmonic =   0.43662) maximal distance =0.02247336
 next E    =   -88.985300   (d E  =  -0.43377)

[...]

 d Force = 0.1422126E+00[ 0.303E-02, 0.281E+00]  d Energy = 0.4929200E+00-0.351E+00
 d Force = 0.8700766E+02[ 0.846E+02, 0.894E+02]  d Ewald  = 0.8986709E+02-0.286E+01

[...]

 d Force =-0.1732661E-02[-0.573E-02, 0.226E-02]  d Energy = 0.2605786E-01-0.278E-01
 d Force = 0.1128326E+01[ 0.104E+01, 0.122E+01]  d Ewald  = 0.1467630E+02-0.135E+02

 Conjugate gradient step on ions:
 trial-energy change:   -0.026058  1 .order   -0.028102   -0.074941    0.018738
  (g-gl).g = 0.659E-01      g.g   = 0.824E-01  gl.gl    = 0.161E+01
 g(Force)  = 0.278E-02   g(Stress)= 0.796E-01 ortho     = 0.165E-01
 gamma     =   0.04090
 trial     =   0.90179
 opt step  =   0.70098  (harmonic =   0.72141) maximal distance =0.00271226
 next E    =   -89.016730   (d E  =  -0.02817)

[...]

 d Force = 0.1105596E-02[ 0.926E-03, 0.129E-02]  d Energy = 0.2460654E-02-0.136E-02
 d Force =-0.2263367E+00[-0.231E+00,-0.222E+00]  d Ewald  =-0.3136298E+01 0.291E+01

[...]

 d Force = 0.2968620E-02[ 0.405E-03, 0.553E-02]  d Energy = 0.7423055E-02-0.445E-02
 d Force =-0.4701262E+01[-0.473E+01,-0.467E+01]  d Ewald  = 0.5154879E+01-0.986E+01

 Conjugate gradient step on ions:
 trial-energy change:   -0.007423  1 .order   -0.007756   -0.015074   -0.000437
  (g-gl).g = 0.180E-01      g.g   = 0.177E-01  gl.gl    = 0.824E-01
 g(Force)  = 0.745E-02   g(Stress)= 0.103E-01 ortho     =-0.109E-02
 gamma     =   0.21808
 trial     =   0.86163
 opt step  =   0.88738  (harmonic =   0.88738) maximal distance =0.00450367
 next E    =   -89.024844   (d E  =  -0.00776)

[...]

 d Force = 0.3169117E-05[-0.587E-05, 0.122E-04]  d Energy = 0.2746769E-05 0.422E-06
 d Force =-0.1431760E+00[-0.143E+00,-0.143E+00]  d Ewald  = 0.1545851E+00-0.298E+00

[...]

 d Force =-0.8691383E-04[-0.487E-03, 0.314E-03]  d Energy = 0.3809156E-03-0.468E-03
 d Force =-0.4766530E+01[-0.477E+01,-0.476E+01]  d Ewald  =-0.7296837E+00-0.404E+01

 Conjugate gradient step on ions:
 trial-energy change:   -0.000381  1 .order   -0.000438   -0.001902    0.001025
  (g-gl).g = 0.235E-02      g.g   = 0.221E-02  gl.gl    = 0.177E-01
 g(Force)  = 0.393E-03   g(Stress)= 0.182E-02 ortho     =-0.147E-03
 gamma     =   0.13280
 trial     =   0.86678
 opt step  =   0.56316  (harmonic =   0.56316) maximal distance =0.00081644
 next E    =   -89.025125   (d E  =  -0.00062)

 FEWALD executed in parallel

[...]

 eigenvalue-minimisations  : 19168
 total energy-change (2. order) :-0.8470648E-03  (-0.3445920E-02)
 number of electron      76.0000120 magnetization      -0.0000000
 augmentation part       17.3389366 magnetization      -0.0000000

[...]

 eigenvalues of (default mixing * dielectric matrix)
  average eigenvalue GAMMA=   0.5394
  0.5394

[...]

----------------------------------------- Iteration    9(   3)  ---------------------------------------

 eigenvalue-minimisations  :  7296
 total energy-change (2. order) : 0.5800557E-04  (-0.1538150E-04)
 number of electron      76.0000120 magnetization       0.0000000
 augmentation part       17.3325476 magnetization       0.0000000

  free energy =  -0.890251753980E+02  energy without entropy=  -0.890488078488E+02

 average (electrostatic) potential at core
  the test charge radii are     1.0210  0.7215
  (the norm of the test charge is              1.0000)
       1 -51.9900       2 -51.9900       3 -51.9900       4 -51.9900       5 -76.1705
       6 -76.1705       7 -76.1705       8 -76.1705       9 -76.1705      10 -76.1705
      11 -76.1705      12 -76.1705

 E-fermi :  -2.2485     XC(G=0):  -7.7860     alpha+bet : -6.3575

[...]

 spin component 2

[...]

 k-point  76 :       0.5000    0.5000    0.5000
  band No.  band energies     occupation
      1     -19.9673      1.00000
      2     -19.9673      1.00000
      3     -19.1646      1.00000
      4     -19.1646      1.00000
      5     -18.8510      1.00000
      6     -18.8510      1.00000
      7     -18.6744      1.00000
      8     -18.6744      1.00000
      9      -7.7223      1.00000
     10      -7.7223      1.00000
     11      -7.5981      1.00000
     12      -7.5981      1.00000
     13      -7.0476      1.00000
     14      -7.0476      1.00000
     15      -6.8999      1.00000
     16      -6.8999      1.00000
     17      -6.4589      1.00000
     18      -6.4589      1.00000
     19      -5.7958      1.00000
     20      -5.7958      1.00000
     21      -5.4868      1.00000
     22      -5.4868      1.00000
     23      -5.0526      1.00000
     24      -5.0526      1.00000
     25      -4.5900      1.00000
     26      -4.5900      1.00000
     27      -4.4243      1.00000
     28      -4.4243      1.00000
     29      -4.0110      1.00000
     30      -4.0110      1.00000
     31      -3.3879      1.00000
     32      -3.3879      1.00000
     33      -3.0821      1.00000
     34      -3.0821      1.00000
     35      -2.6824      1.00445
     36      -2.6824      1.00445
     37      -2.3959      0.97214
     38      -2.3959      0.97214
     39      -0.1846     -0.00000
     40      -0.1845     -0.00000
     41       0.6494     -0.00000
     42       0.6494     -0.00000
     43       1.5901     -0.00000
     44       1.5901     -0.00000
     45       1.6337     -0.00000
     46       1.6337     -0.00000
     47       1.7675     -0.00000
     48       1.7675     -0.00000

[...]

 soft charge-density along one line, spin component           2
         0         1         2         3         4         5         6         7         8         9
 total charge-density along one line

------------------------ aborting loop because EDIFF is reached ----------------------------------------

  FORCE on cell =-STRESS in cart. coord.  units (eV):
  Direction    XX          YY          ZZ          XY          YZ          ZX
  Alpha Z   189.69157   189.69157   189.69157
  Ewald    2342.38923  2345.44299 -5559.52523    -1.87066   -12.25766   -41.67984
  Hartree  3517.54474  3518.47972 -2872.62644    -0.55392   -10.59099   -34.77366
  E(xc)    -370.04456  -370.03800  -369.07657    -0.01513    -0.00782    -0.01017
  Local   -6889.37175 -6892.86073  7347.27760     2.03513    23.28844    76.99775
  n-local  -253.59496  -253.34664  -265.31018    -0.26281     0.11255     0.15308
  augment   172.30554   172.04879   178.33735     0.23323    -0.09527    -0.14938
  Kinetic  1291.28003  1290.74167  1351.36082     0.38017    -0.39717    -0.57566
  Fock        0.00000     0.00000     0.00000     0.00000     0.00000     0.00000
  Total       0.19983     0.15935     0.12891    -0.05398     0.05208    -0.03790
  in kB       1.59584     1.27261     1.02947    -0.43109     0.41591    -0.30266

 VOLUME and BASIS-vectors are now :
  energy-cutoff  :      520.00
  volume of cell :      200.62
      direct lattice vectors                 reciprocal lattice vectors
     5.742664680  0.120056527 -0.031734710     0.172101809  0.104095754  0.025850338
    -2.973541556  4.914181885  0.007984859    -0.004316442  0.200914956 -0.021009332
    -1.480738404  0.703015562  7.027251475     0.000782108  0.000241797  0.142443758

  length of vectors
     5.744007163  5.743796370  7.215890825     0.202788556  0.202056535  0.142446110

 FORCES acting on ions
    electron-ion (+dipol)            ewald-force                    non-local-force                 convergence-correction
   0.177E-06 -.817E-07 0.544E-06   -.174E-05 0.806E-06 -.544E-05   -.450E-22 -.449E-22 -.178E-21   0.152E-10 0.704E-09 -.191E-08
   0.177E-06 -.817E-07 0.544E-06   -.174E-05 0.806E-06 -.544E-05   -.746E-22 -.218E-22 -.100E-21   0.145E-10 0.704E-09 -.191E-08
   0.177E-06 -.817E-07 0.544E-06   -.174E-05 0.806E-06 -.544E-05   0.310E-22 -.148E-22 0.190E-22   0.147E-10 0.703E-09 -.191E-08
   0.177E-06 -.817E-07 0.544E-06   -.174E-05 0.806E-06 -.544E-05   -.307E-22 -.184E-22 -.149E-21   0.154E-10 0.703E-09 -.191E-08
   -.271E+01 -.930E+00 -.449E+03   0.283E+01 0.959E+00 0.474E+03   -.116E+00 -.205E-01 -.259E+02   -.717E-02 -.619E-02 0.169E-01
   0.271E+01 0.930E+00 0.449E+03   -.283E+01 -.959E+00 -.474E+03   0.116E+00 0.205E-01 0.259E+02   0.717E-02 0.619E-02 -.169E-01
   -.271E+01 -.929E+00 -.449E+03   0.283E+01 0.959E+00 0.474E+03   -.116E+00 -.205E-01 -.259E+02   -.717E-02 -.619E-02 0.169E-01
   0.271E+01 0.929E+00 0.449E+03   -.283E+01 -.959E+00 -.474E+03   0.116E+00 0.205E-01 0.259E+02   0.717E-02 0.619E-02 -.169E-01
   -.271E+01 -.930E+00 -.449E+03   0.283E+01 0.959E+00 0.474E+03   -.116E+00 -.205E-01 -.259E+02   -.717E-02 -.619E-02 0.169E-01
   0.271E+01 0.930E+00 0.449E+03   -.283E+01 -.959E+00 -.474E+03   0.116E+00 0.205E-01 0.259E+02   0.717E-02 0.619E-02 -.169E-01
   -.271E+01 -.929E+00 -.449E+03   0.283E+01 0.959E+00 0.474E+03   -.116E+00 -.205E-01 -.259E+02   -.717E-02 -.619E-02 0.169E-01
   0.271E+01 0.929E+00 0.449E+03   -.283E+01 -.959E+00 -.474E+03   0.116E+00 0.205E-01 0.259E+02   0.717E-02 0.619E-02 -.169E-01
   0.681E-04 -.326E-04 -.402E-03   -.488E-14 0.711E-14 -.568E-13   0.333E-15 -.590E-16 -.107E-13   -.971E-08 0.133E-07 0.429E-07

 POSITION                                       TOTAL-FORCE (eV/Angst)
     -0.00000      0.00000      0.00000        -0.000000      0.000000     -0.000000
     -1.48677      2.45709      0.00399        -0.000000      0.000000     -0.000000
      2.87133      0.06003     -0.01587        -0.000000      0.000000     -0.000000
      1.38456      2.51712     -0.01187        -0.000000      0.000000     -0.000000
     -1.51677      4.11552      0.95821        -0.004395      0.002290      0.011360
      2.80515      1.62174      6.04529         0.004395     -0.002290     -0.011360
     -0.03000      1.65843      0.95422        -0.004395      0.002290      0.011360
      1.31838      4.07883      6.04929         0.004395     -0.002290     -0.011360
      1.35456      4.17555      0.94234        -0.004395      0.002290      0.011360
     -0.06618      1.56171      6.06116         0.004395     -0.002290     -0.011360
      2.84133      1.71845      0.93835        -0.004395      0.002290      0.011360
     -1.55295      4.01880      6.06515         0.004395     -0.002290     -0.011360
    total drift:                                0.000068     -0.000033     -0.000402

  FREE ENERGIE OF THE ION-ELECTRON SYSTEM (eV)
  free  energy   TOTEN  =       -89.02517540 eV

  energy  without entropy=      -89.04880785  energy(sigma->0) =      -89.03305288

 d Force = 0.1067634E-03[ 0.424E-04, 0.171E-03]  d Energy = 0.2869492E-03-0.180E-03
 d Force = 0.1675019E+01[ 0.167E+01, 0.168E+01]  d Ewald  = 0.2569879E+00 0.142E+01

 reached required accuracy - stopping structural energy minimisation