 vasp.5.3.3 18Dez12 (build May 12 2016 12:04:25) complex

 executed on             LinuxIFC date 2019.05.18  14:09:49

 INCAR:
 POTCAR:    PAW_PBE O 08Apr2002
 POTCAR:    PAW_PBE Mn 06Sep2000
 POTCAR:    PAW_PBE O 08Apr2002

 POTCAR:    PAW_PBE Mn 06Sep2000

  PAW_PBE O 08Apr2002                   :
  PAW_PBE Mn 06Sep2000                  :

 POSCAR: (Mn O2)8  (I4/m) ~  (Pearson #1102438)_1
  positions in direct lattice
  velocities in cartesian coordinates
 exchange correlation table for  LEXCH =       14
   RHO(1)=    0.500       N(1)  =     2000
   RHO(2)=  100.500       N(2)  =     4000

 ion  position               nearest neighbor table
   1  0.639  0.844  0.795-  10 1.91  10 1.91   9 1.92
   2  0.361  0.156  0.205-   9 1.91   9 1.91  10 1.92
   3  0.048  0.203  0.845-  12 1.91  12 1.91  11 1.92
   4  0.952  0.797  0.155-  11 1.91  11 1.91  12 1.92
   5  0.380  0.838  0.542-  10 1.89  10 1.89  12 1.89
   6  0.620  0.162  0.458-   9 1.89   9 1.89  11 1.89
   7  0.291  0.457  0.833-  12 1.89  12 1.89   9 1.90
   8  0.709  0.543  0.167-  11 1.89  11 1.89  10 1.90
   9  0.485  0.652  0.834-   6 1.89   6 1.89   7 1.90   2 1.91   2 1.91   1 1.92  10 2.90  10 2.90

  10  0.515  0.348  0.166-   5 1.89   5 1.89   8 1.90   1 1.91   1 1.91   2 1.92   9 2.90   9 2.90

[...]

  12  0.181  0.833  0.348-   7 1.89   7 1.89   5 1.89   3 1.91   3 1.91   4 1.92  11 2.89  11 2.89

  LATTYP: Found a base centered monoclinic cell.
 ALAT       =    13.8618402552
 B/A-ratio  =     0.2075104477
 C/A-ratio  =     0.7049345210
 COS(beta)  =    -0.6940536832

  Lattice vectors:

 A1 = (   4.8993619022,   4.9024388590,   1.4382383389)
 A2 = (   4.8993619022,   4.9024388590,  -1.4382383389)
 A3 = (  -9.7716523085,  -0.0270399854,   0.0000000000)

Analysis of symmetry for initial positions (statically):
 Subroutine PRICEL returns:
 Original cell was already a primitive cell.

 Routine SETGRP: Setting up the symmetry group for a
 base centered monoclinic supercell.

 Subroutine GETGRP returns: Found  4 space group operations
 (whereof  4 operations were pure point group operations)
 out of a pool of  4 trial point group operations.

The static configuration has the point symmetry C_2h.

Analysis of symmetry for dynamics (positions and initial velocities):
 Subroutine PRICEL returns:
 Original cell was already a primitive cell.

 Routine SETGRP: Setting up the symmetry group for a
 base centered monoclinic supercell.

 Subroutine GETGRP returns: Found  4 space group operations
 (whereof  4 operations were pure point group operations)
 out of a pool of  4 trial point group operations.

The dynamic configuration has the point symmetry C_2h.

Analysis of magnetic symmetry:

 Subroutine MAGSYM returns: Found  4 space group operations
 (whereof  4 operations were pure point group operations)
 out of a pool of  4 trial space group operations
 (whereof  4 operations were pure point group operations)
 and found also     1 'primitive' translations

The magnetic configuration has the point symmetry C_2h.

 irot  :   1
 isymop:   1   0   0
           0   1   0
           0   0   1

 gtrans:     0.0000000     0.0000000     0.0000000

 ptrans:     0.0000000     0.0000000     0.0000000
 rotmap:
 (   1->   1)  (   2->   2)  (   3->   3)  (   4->   4)  (   5->   5)
 (   6->   6)  (   7->   7)  (   8->   8)  (   9->   9)  (  10->  10)
 (  11->  11)  (  12->  12)

[...]

 irot  :   4
 isymop:   1   0   0
           1   0  -1
           1  -1   0

 gtrans:     0.0000000     0.0000000     0.0000000

 ptrans:     0.0000000     0.0000000     0.0000000
 rotmap:
 (   1->   1)  (   2->   2)  (   3->   3)  (   4->   4)  (   5->   5)
 (   6->   6)  (   7->   7)  (   8->   8)  (   9->   9)  (  10->  10)
 (  11->  11)  (  12->  12)

 KPOINTS: Automatic mesh

Automatic generation of k-mesh.
Space group operators:
 irot       det(A)        alpha          n_x          n_y          n_z        tau_x        tau_y        tau_z
    1     1.000000     0.000001     1.000000     0.000000     0.000000     0.000000     0.000000     0.000000
    2    -1.000000     0.000001     1.000000     0.000000     0.000000     0.000000     0.000000     0.000000
    3     1.000000   180.000000     0.000000    -0.000000    -1.000000     0.000000     0.000000     0.000000
    4    -1.000000   180.000000     0.000000    -0.000000    -1.000000     0.000000     0.000000     0.000000

 Subroutine IBZKPT returns following result:

 Found    282 irreducible k-points:

 Following reciprocal coordinates:
            Coordinates               Weight
  0.000000  0.000000  0.000000      1.000000
  0.100000  0.000000 -0.000000      2.000000
  0.200000  0.000000 -0.000000      2.000000
  0.300000  0.000000 -0.000000      2.000000
  0.400000  0.000000 -0.000000      2.000000
  0.500000  0.000000 -0.000000      1.000000
 -0.000000  0.100000  0.000000      4.000000
  0.100000  0.100000 -0.000000      4.000000
  0.200000  0.100000  0.000000      4.000000
  0.300000  0.100000 -0.000000      4.000000
  0.400000  0.100000 -0.000000      4.000000
  0.500000  0.100000 -0.000000      4.000000
 -0.400000  0.100000  0.000000      4.000000
 -0.300000  0.100000  0.000000      4.000000
 -0.200000  0.100000 -0.000000      4.000000
 -0.100000  0.100000  0.000000      4.000000
 -0.000000  0.200000 -0.000000      4.000000
  0.100000  0.200000 -0.000000      4.000000
  0.200000  0.200000 -0.000000      4.000000
  0.300000  0.200000 -0.000000      4.000000
  0.400000  0.200000 -0.000000      4.000000
  0.500000  0.200000 -0.000000      4.000000
 -0.400000  0.200000 -0.000000      4.000000
 -0.300000  0.200000  0.000000      4.000000
 -0.200000  0.200000 -0.000000      4.000000
 -0.100000  0.200000 -0.000000      4.000000
 -0.000000  0.300000  0.000000      4.000000
  0.100000  0.300000 -0.000000      4.000000
  0.200000  0.300000  0.000000      4.000000
  0.300000  0.300000 -0.000000      4.000000
  0.400000  0.300000 -0.000000      4.000000
  0.500000  0.300000 -0.000000      4.000000
 -0.400000  0.300000  0.000000      4.000000
 -0.300000  0.300000  0.000000      4.000000
 -0.200000  0.300000  0.000000      4.000000
 -0.100000  0.300000  0.000000      4.000000
 -0.000000  0.400000 -0.000000      4.000000
  0.100000  0.400000 -0.000000      4.000000
  0.200000  0.400000 -0.000000      4.000000
  0.300000  0.400000 -0.000000      4.000000
  0.400000  0.400000 -0.000000      4.000000
  0.500000  0.400000 -0.000000      4.000000
 -0.400000  0.400000 -0.000000      4.000000
 -0.300000  0.400000  0.000000      4.000000
 -0.200000  0.400000 -0.000000      4.000000
 -0.100000  0.400000 -0.000000      4.000000
 -0.000000  0.500000 -0.000000      2.000000
  0.100000  0.500000 -0.000000      4.000000
  0.200000  0.500000  0.000000      4.000000
  0.300000  0.500000 -0.000000      4.000000
  0.400000  0.500000 -0.000000      4.000000
  0.500000  0.500000 -0.000000      2.000000
 -0.000000  0.100000  0.100000      4.000000
  0.100000  0.100000  0.100000      4.000000
  0.200000  0.100000  0.100000      4.000000
  0.300000  0.100000  0.100000      4.000000
  0.400000  0.100000  0.100000      2.000000
 -0.100000  0.100000  0.100000      2.000000
 -0.000000  0.200000  0.100000      4.000000
  0.100000  0.200000  0.100000      4.000000
[...]
  0.100000 -0.400000  0.400000      2.000000
  0.200000 -0.400000  0.400000      2.000000
  0.300000 -0.400000  0.400000      2.000000
  0.400000 -0.400000  0.400000      2.000000
  0.500000 -0.400000  0.400000      2.000000
 -0.400000 -0.400000  0.400000      2.000000
 -0.300000 -0.400000  0.400000      2.000000
 -0.200000 -0.400000  0.400000      2.000000
 -0.100000 -0.400000  0.400000      2.000000
 -0.000000  0.500000  0.500000      1.000000
  0.100000  0.500000  0.500000      2.000000
  0.200000  0.500000  0.500000      2.000000
  0.300000  0.500000  0.500000      2.000000
  0.400000  0.500000  0.500000      2.000000
  0.500000  0.500000  0.500000      1.000000

 Following cartesian coordinates:
            Coordinates               Weight
  0.000000  0.000000  0.000000      1.000000
 -0.010205 -0.010199  0.000000      2.000000
 -0.020411 -0.020398  0.000000      2.000000
 -0.030616 -0.030597  0.000000      2.000000
 -0.040822 -0.040796  0.000000      2.000000
 -0.051027 -0.050995  0.000000      1.000000
 -0.010234  0.000028 -0.034765      4.000000
 -0.020439 -0.010171 -0.034765      4.000000
 -0.030645 -0.020370 -0.034765      4.000000
 -0.040850 -0.030569 -0.034765      4.000000
 -0.051056 -0.040767 -0.034765      4.000000
 -0.061261 -0.050966 -0.034765      4.000000
  0.030588  0.040824 -0.034765      4.000000
  0.020383  0.030625 -0.034765      4.000000
  0.010177  0.020426 -0.034765      4.000000
 -0.000028  0.010227 -0.034765      4.000000
 -0.020468  0.000057 -0.069530      4.000000
 -0.030673 -0.010142 -0.069530      4.000000
 -0.040878 -0.020341 -0.069530      4.000000
 -0.051084 -0.030540 -0.069530      4.000000
 -0.061289 -0.040739 -0.069530      4.000000
 -0.071495 -0.050938 -0.069530      4.000000
  0.020354  0.040852 -0.069530      4.000000
  0.010149  0.030654 -0.069530      4.000000
 -0.000057  0.020455 -0.069530      4.000000
 -0.010262  0.010256 -0.069530      4.000000
 -0.030701  0.000085 -0.104294      4.000000
 -0.040907 -0.010114 -0.104294      4.000000
 -0.051112 -0.020313 -0.104294      4.000000
 -0.061318 -0.030512 -0.104294      4.000000
 -0.071523 -0.040711 -0.104294      4.000000
 -0.081729 -0.050910 -0.104294      4.000000
  0.010121  0.040881 -0.104294      4.000000
 -0.000085  0.030682 -0.104294      4.000000
 -0.010290  0.020483 -0.104294      4.000000
 -0.020496  0.010284 -0.104294      4.000000
 -0.040935  0.000113 -0.139059      4.000000
 -0.051141 -0.010086 -0.139059      4.000000
 -0.061346 -0.020285 -0.139059      4.000000
 -0.071551 -0.030484 -0.139059      4.000000
 -0.081757 -0.040682 -0.139059      4.000000
 -0.091962 -0.050881 -0.139059      4.000000
 -0.000113  0.040909 -0.139059      4.000000
 -0.010319  0.030710 -0.139059      4.000000
 -0.020524  0.020511 -0.139059      4.000000
 -0.030730  0.010312 -0.139059      4.000000
 -0.051169  0.000142 -0.173824      2.000000
 -0.061374 -0.010057 -0.173824      4.000000
 -0.071580 -0.020256 -0.173824      4.000000
 -0.081785 -0.030455 -0.173824      4.000000
 -0.091991 -0.040654 -0.173824      4.000000
 -0.102196 -0.050853 -0.173824      2.000000
 -0.010205 -0.010199 -0.069530      4.000000
 -0.020411 -0.020398 -0.069530      4.000000
 -0.030616 -0.030597 -0.069530      4.000000
 -0.040822 -0.040796 -0.069530      4.000000
 -0.051027 -0.050995 -0.069530      2.000000
  0.000000  0.000000 -0.069530      2.000000
 -0.020439 -0.010171 -0.104294      4.000000
 -0.030645 -0.020370 -0.104294      4.000000
[...]
  0.030843 -0.051221  0.000000      2.000000
  0.020637 -0.061420  0.000000      2.000000
  0.010432 -0.071619 -0.000000      2.000000
  0.000226 -0.081818  0.000000      2.000000
 -0.009979 -0.092017  0.000000      2.000000
  0.081870 -0.000227  0.000000      2.000000
  0.071665 -0.010426 -0.000000      2.000000
  0.061459 -0.020625  0.000000      2.000000
  0.051254 -0.030824  0.000000      2.000000
 -0.051027 -0.050995 -0.347648      1.000000
[...]
 k-point ** :   0.4000-0.1000 0.1000  plane waves:    3712
 k-point ** :   0.5000-0.1000 0.1000  plane waves:    3722
 k-point ** :  -0.4000-0.1000 0.1000  plane waves:    3714
 k-point ** :  -0.3000-0.1000 0.1000  plane waves:    3699
 k-point ** :  -0.2000-0.1000 0.1000  plane waves:    3698
 k-point ** :  -0.1000-0.1000 0.1000  plane waves:    3693
 k-point ** :  -0.0000 0.2000 0.2000  plane waves:    3703
 k-point ** :   0.1000 0.2000 0.2000  plane waves:    3692
 k-point ** :   0.2000 0.2000 0.2000  plane waves:    3682
 k-point ** :   0.3000 0.2000 0.2000  plane waves:    3670
 k-point ** :  -0.3000 0.2000 0.2000  plane waves:    3701
 k-point ** :  -0.2000 0.2000 0.2000  plane waves:    3727
 k-point ** :  -0.0000 0.3000 0.2000  plane waves:    3699
 k-point ** :   0.1000 0.3000 0.2000  plane waves:    3697
 k-point ** :   0.2000 0.3000 0.2000  plane waves:    3698
 k-point ** :   0.3000 0.3000 0.2000  plane waves:    3696
 k-point ** :   0.4000 0.3000 0.2000  plane waves:    3694
 k-point ** :   0.5000 0.3000 0.2000  plane waves:    3697
 k-point ** :  -0.4000 0.3000 0.2000  plane waves:    3689
 k-point ** :  -0.3000 0.3000 0.2000  plane waves:    3683
 k-point ** :  -0.2000 0.3000 0.2000  plane waves:    3683
 k-point ** :  -0.1000 0.3000 0.2000  plane waves:    3691
 k-point ** :  -0.0000 0.4000 0.2000  plane waves:    3693
 k-point ** :   0.1000 0.4000 0.2000  plane waves:    3687
 k-point ** :   0.2000 0.4000 0.2000  plane waves:    3687
 k-point ** :   0.3000 0.4000 0.2000  plane waves:    3688
 k-point ** :   0.4000 0.4000 0.2000  plane waves:    3693
[...]
 k-point ** :   0.1000-0.4000 0.4000  plane waves:    3722
 k-point ** :   0.2000-0.4000 0.4000  plane waves:    3718
 k-point ** :   0.3000-0.4000 0.4000  plane waves:    3723
 k-point ** :   0.4000-0.4000 0.4000  plane waves:    3713
 k-point ** :   0.5000-0.4000 0.4000  plane waves:    3706
 k-point ** :  -0.4000-0.4000 0.4000  plane waves:    3715
 k-point ** :  -0.3000-0.4000 0.4000  plane waves:    3723
 k-point ** :  -0.2000-0.4000 0.4000  plane waves:    3718
 k-point ** :  -0.1000-0.4000 0.4000  plane waves:    3722
 k-point ** :  -0.0000 0.5000 0.5000  plane waves:    3738
 k-point ** :   0.1000 0.5000 0.5000  plane waves:    3730
 k-point ** :   0.2000 0.5000 0.5000  plane waves:    3704
 k-point ** :   0.3000 0.5000 0.5000  plane waves:    3704
 k-point ** :   0.4000 0.5000 0.5000  plane waves:    3710
 k-point ** :   0.5000 0.5000 0.5000  plane waves:    3730

 maximum and minimum number of plane-waves per node :       967      882

 maximum number of plane-waves:      3738
 maximum index in each direction:
   IXMAX=   13   IYMAX=   13   IZMAX=   13
   IXMIN=  -13   IYMIN=  -13   IZMIN=  -13

 WARNING: aliasing errors must be expected set NGX to  54 to avoid them
 WARNING: aliasing errors must be expected set NGY to  54 to avoid them
 WARNING: aliasing errors must be expected set NGZ to  54 to avoid them
 aliasing errors are usually negligible using standard VASP settings
 and one can safely disregard these warnings

 parallel 3D FFT for wavefunctions:
    minimum data exchange during FFTs selected (reduces bandwidth)
 parallel 3D FFT for charge:
    minimum data exchange during FFTs selected (reduces bandwidth)

 Broyden mixing: mesh for mixing (old mesh)
   NGX = 27   NGY = 27   NGZ = 27
  (NGX  = 80   NGY  = 80   NGZ  = 80)
  gives a total of  19683 points

 initial charge density was supplied:
 charge density of overlapping atoms calculated
 number of electron      76.0000000 magnetization       0.0000000
 keeping initial charge density in first step

 Maximum index for augmentation-charges         1040 (set IRDMAX)

 First call to EWALD:  gamma=   0.343
 Maximum number of real-space cells 2x 5x 5
 Maximum number of reciprocal cells 4x 4x 4

 FEWALD executed in parallel

----------------------------------------- Iteration    1(   1)  ---------------------------------------

 BZINTS: Fermi energy: 22.769813; 76.000000 electrons
         Band energy: 790.812800;  BLOECHL correction: -0.125990

 eigenvalue-minimisations  : 54160
 total energy-change (2. order) : 0.1110576E+04  (-0.3383483E+04)
 number of electron      76.0000000 magnetization       0.0000000
 augmentation part       76.0000000 magnetization       0.0000000

 Free energy of the ion-electron system (eV)
  alpha Z        PSCENC =       276.94297269
  Ewald energy   TEWEN  =     -3236.46195491
  -1/2 Hartree   DENC   =     -2091.70601082
  -exchange  EXHF       =         0.00000000
  -V(xc)+E(xc)   XCENC  =       185.46665220
  PAW double counting   =      4385.75833043    -4310.80712112
  entropy T*S    EENTRO =         0.00000000
  eigenvalues    EBANDS =       790.81279951
  atomic energy  EATOM  =      5110.57042958
  free energy    TOTEN  =      1110.57609755 eV

  energy without entropy =     1110.57609755  energy(sigma->0) =     1110.57609755

[...]

 BZINTS: Fermi energy:  8.624046; 76.000000 electrons
         Band energy:-153.621672;  BLOECHL correction: -0.082627

 eigenvalue-minimisations  : 54672
 total energy-change (2. order) :-0.9444345E+03  (-0.9033111E+03)
 number of electron      76.0000000 magnetization       0.0000000
 augmentation part       76.0000000 magnetization       0.0000000

[...]

 Broyden mixing:
  rms(total) = 0.56664E+01    rms(broyden)= 0.56660E+01
  rms(prec ) = 0.74607E+01
  weight for this iteration     100.00

[...]

 eigenvalues of (default mixing * dielectric matrix)
  average eigenvalue GAMMA=   0.2514
  0.2514

[...]

 eigenvalue-minimisations  :101048
 total energy-change (2. order) : 0.1061004E+02  (-0.1582526E+02)
 number of electron      76.0000056 magnetization       0.0000000
 augmentation part       16.2708161 magnetization       0.0000000

[...]

 eigenvalue-minimisations  :103608
 total energy-change (2. order) :-0.6369983E-01  (-0.3590471E+00)
 number of electron      76.0000055 magnetization      -0.0000000
 augmentation part       17.7787613 magnetization      -0.0000000

[...]

 eigenvalue-minimisations  : 89096
 total energy-change (2. order) : 0.1177968E-02  (-0.7670509E-03)
 number of electron      76.0000055 magnetization       0.0000000
 augmentation part       17.3594313 magnetization       0.0000000

[...]

 Broyden mixing:
  rms(total) = 0.98418E-02    rms(broyden)= 0.98361E-02
  rms(prec ) = 0.12766E-01
  weight for this iteration     100.00

 eigenvalues of (default mixing * dielectric matrix)
  average eigenvalue GAMMA=   1.0325
  2.2505  1.8133  1.1683  1.1683  0.3970  0.6499  0.6499  0.5976  0.5976

[...]

----------------------------------------- Iteration    1(  15)  ---------------------------------------

[...]

 eigenvalue-minimisations  : 42536
 total energy-change (2. order) :-0.6017820E-04  (-0.1731609E-04)
 number of electron      76.0000055 magnetization       0.0000000
 augmentation part       17.3535612 magnetization       0.0000000

 Free energy of the ion-electron system (eV)
  alpha Z        PSCENC =       276.94297269
  Ewald energy   TEWEN  =     -3236.46195491
  -1/2 Hartree   DENC   =     -2101.75017944
  -exchange  EXHF       =         0.00000000
  -V(xc)+E(xc)   XCENC  =       192.07133285
  PAW double counting   =      6557.65248841    -6491.08495082
  entropy T*S    EENTRO =         0.00000000
  eigenvalues    EBANDS =      -397.40677926
  atomic energy  EATOM  =      5110.57042958
  free energy    TOTEN  =       -89.46664089 eV

  energy without entropy =      -89.46664089  energy(sigma->0) =      -89.46664089

 average (electrostatic) potential at core
  the test charge radii are     0.7215  1.0210
  (the norm of the test charge is              1.0000)
       1 -73.4387       2 -73.4387       3 -73.3622       4 -73.3622       5 -73.2351
       6 -73.2351       7 -73.1426       8 -73.1426       9 -49.1921      10 -49.1921
      11 -49.1361      12 -49.1361

 E-fermi :   1.0118     XC(G=0): -10.3819     alpha+bet : -9.2817

 spin component 1

 k-point   1 :       0.0000    0.0000    0.0000
  band No.  band energies     occupation
      1     -17.8416      1.00000
      2     -17.1813      1.00000
      3     -16.5644      1.00000
      4     -16.4902      1.00000
      5     -15.9529      1.00000
      6     -15.8147      1.00000
      7     -15.7602      1.00000
      8     -15.7465      1.00000
      9      -5.7477      1.00000
     10      -5.6707      1.00000
     11      -4.8048      1.00000
     12      -4.5208      1.00000
     13      -4.2654      1.00000
     14      -4.1671      1.00000
     15      -4.1530      1.00000
     16      -4.0940      1.00000
     17      -3.6920      1.00000
     18      -3.2791      1.00000
     19      -3.2092      1.00000
     20      -2.9427      1.00000
     21      -2.7543      1.00000
     22      -2.4879      1.00000
     23      -2.2712      1.00000
     24      -2.0367      1.00000
     25      -1.8081      1.00000
     26      -1.4480      1.00000
     27      -1.0505      1.00000
     28      -0.9708      1.00000
     29      -0.7482      1.00000
     30      -0.7419      1.00000
     31      -0.4445      1.00000
     32      -0.3127      1.00000
     33       0.1413      1.00000
     34       0.2365      1.00000
     35       0.2954      1.00000
     36       0.4144      1.00000
     37       0.5080      1.00000
     38       0.6983      1.00000
     39       2.7914      0.00000
     40       3.2162      0.00000
     41       3.3049      0.00000
     42       3.7099      0.00000
     43       3.7283      0.00000
     44       4.0810      0.00000
     45       4.2905      0.00000
     46       4.5921      0.00000
     47       4.8951      0.00000
     48       5.0194      0.00000

[...]

 spin component 2

[...]

 k-point 282 :       0.5000    0.5000    0.5000
  band No.  band energies     occupation
      1     -17.5308      1.00000
      2     -17.4631      1.00000
      3     -16.9973      1.00000
      4     -16.1469      1.00000
      5     -15.8697      1.00000
      6     -15.8044      1.00000
      7     -15.7746      1.00000
      8     -15.7461      1.00000
      9      -5.9610      1.00000
     10      -5.5588      1.00000
     11      -4.8350      1.00000
     12      -4.7209      1.00000
     13      -4.2144      1.00000
     14      -4.1994      1.00000
     15      -4.0758      1.00000
     16      -3.8882      1.00000
     17      -3.6023      1.00000
     18      -3.5418      1.00000
     19      -3.4090      1.00000
     20      -2.6311      1.00000
     21      -2.5990      1.00000
     22      -2.2988      1.00000
     23      -2.1325      1.00000
     24      -1.9955      1.00000
     25      -1.8949      1.00000
     26      -1.3842      1.00000
     27      -1.3134      1.00000
     28      -1.0788      1.00000
     29      -0.9148      1.00000
     30      -0.5377      1.00000
     31      -0.2901      1.00000
     32      -0.2193      1.00000
     33      -0.0912      1.00000
     34       0.0250      1.00000
     35       0.3157      1.00000
     36       0.3980      1.00000
     37       0.5156      1.00000
     38       0.7869      1.00000
     39       2.6461      0.00000
     40       3.2134      0.00000
     41       3.3153      0.00000
     42       3.7002      0.00000
     43       3.8687      0.00000
     44       4.0540      0.00000
     45       4.2460      0.00000
     46       4.6362      0.00000
     47       4.8425      0.00000
     48       5.0818      0.00000

 soft charge-density along one line, spin component           1
         0         1         2         3         4         5         6         7         8         9
 total charge-density along one line

 soft charge-density along one line, spin component           2
         0         1         2         3         4         5         6         7         8         9
 total charge-density along one line

------------------------ aborting loop because EDIFF is reached ----------------------------------------

  FORCE on cell =-STRESS in cart. coord.  units (eV):
  Direction    XX          YY          ZZ          XY          YZ          ZX
  Alpha Z   276.94297   276.94297   276.94297
  Ewald   -1615.50121 -1635.83100    14.86309    11.52657     0.00000     0.00000
  Hartree   323.98648   303.33871  1474.61521     8.93701     0.00000     0.00000
  E(xc)    -369.72536  -369.75552  -370.31805     0.00769    -0.00011    -0.00010
  Local     144.12710   185.00886 -2601.31382   -20.24628    -0.00044    -0.00047
  n-local  -260.79802  -260.93238  -252.58102     0.09286    -0.10935     0.00095
  augment   176.43416   176.48992   171.69361    -0.07316     0.00007     0.00010
  Kinetic  1324.32206  1324.26923  1286.31813    -0.24225     0.22661    -0.07214
  Fock        0.00000     0.00000     0.00000     0.00000     0.00000     0.00000
  Total      -0.21182    -0.46921     0.22013     0.00244     0.00000    -0.00000
  in kB      -2.46968    -5.47065     2.56658     0.02848     0.00000    -0.00000

 VOLUME and BASIS-vectors are now :
  energy-cutoff  :      520.00
  volume of cell :      137.42
      direct lattice vectors                 reciprocal lattice vectors
    -4.899361902 -4.902438859  1.438238339    -0.102054614 -0.101989546  0.000000000
    -4.872290406  4.875398874 -1.438238339    -0.102337622  0.000283338 -0.347647526
     4.872290406 -4.875398874 -1.438238339     0.000283008 -0.102272884 -0.347647526

  length of vectors
     7.078572125  7.041111950  7.041111950     0.144281016  0.362397394  0.362379118

 FORCES acting on ions
    electron-ion (+dipol)            ewald-force                    non-local-force                 convergence-correction
   0.204E+03 0.267E+03 -.292E-05   -.221E+03 -.287E+03 -.398E-11   0.168E+02 0.199E+02 -.185E-15   0.278E-02 0.132E-01 -.115E-08
   -.204E+03 -.267E+03 0.292E-05   0.221E+03 0.287E+03 0.397E-11   -.168E+02 -.199E+02 -.206E-15   -.278E-02 -.132E-01 0.115E-08
   -.266E+03 0.210E+03 -.114E-04   0.286E+03 -.227E+03 0.383E-11   -.201E+02 0.166E+02 0.135E-17   -.126E-01 0.658E-02 -.275E-07
   0.266E+03 -.210E+03 0.114E-04   -.286E+03 0.227E+03 -.383E-11   0.201E+02 -.166E+02 -.248E-16   0.126E-01 -.658E-02 0.275E-07
   -.121E+03 -.412E+02 0.268E-04   0.123E+03 0.456E+02 -.427E-11   -.184E+01 -.439E+01 -.411E-17   -.139E-01 -.745E-04 -.804E-08
   0.121E+03 0.412E+02 -.268E-04   -.123E+03 -.456E+02 0.426E-11   0.184E+01 0.439E+01 0.228E-16   0.139E-01 0.745E-04 0.804E-08
   0.423E+02 -.128E+03 -.208E-04   -.464E+02 0.132E+03 -.333E-13   0.416E+01 -.455E+01 -.942E-17   0.145E-02 -.120E-01 -.203E-08
   -.423E+02 0.128E+03 0.208E-04   0.464E+02 -.132E+03 0.373E-13   -.416E+01 0.455E+01 0.412E-17   -.145E-02 0.120E-01 0.203E-08
   0.520E+01 -.292E+02 0.133E-05   -.460E+01 0.287E+02 -.626E-11   -.603E+00 0.495E+00 -.334E-17   0.229E-01 -.272E-01 0.566E-08
   -.520E+01 0.292E+02 -.133E-05   0.460E+01 -.287E+02 0.628E-11   0.603E+00 -.495E+00 0.449E-17   -.229E-01 0.272E-01 -.566E-08
   0.353E+02 -.803E+00 -.223E-05   -.347E+02 0.118E+01 0.184E-11   -.527E+00 -.339E+00 0.620E-17   0.322E-01 0.163E-01 0.570E-07
   -.353E+02 0.803E+00 0.223E-05   0.347E+02 -.118E+01 -.182E-11   0.527E+00 0.339E+00 -.380E-17   -.322E-01 -.163E-01 -.570E-07
   -.936E-12 -.312E-11 0.147E-11   0.568E-13 -.642E-13 0.158E-13   0.355E-14 0.167E-15 -.398E-15   -.997E-12 0.889E-12 0.483E-13

 POSITION                                       TOTAL-FORCE (eV/Angst)
     -3.37064     -2.89740     -1.43824         0.003655      0.011136     -0.000000
     -1.52873     -2.00504      0.00000        -0.003655     -0.011136     -0.000000
      2.89015     -3.36079     -1.43824        -0.013950     -0.015665     -0.000000
     -7.78951     -1.54164      0.00000         0.013950      0.015665     -0.000000
     -3.30601     -0.41533     -1.43824        -0.037763      0.038726      0.000000
     -1.59335     -4.48711     -0.00000         0.037763     -0.038726      0.000000
      0.40756     -3.25869     -1.43824        -0.003508      0.020211     -0.000000
     -5.30692     -1.64375     -0.00000         0.003508     -0.020211      0.000000
     -1.49147     -3.26715     -1.43824         0.020532      0.025233     -0.000000
     -3.40790     -1.63529     -0.00000        -0.020532     -0.025233     -0.000000
     -1.65339     -6.38015      0.00000         0.011768      0.057083      0.000000
     -3.24598      1.47772     -1.43824        -0.011768     -0.057083      0.000000
    total drift:                               -0.000000     -0.000000      0.000000

  FREE ENERGIE OF THE ION-ELECTRON SYSTEM (eV)
  free  energy   TOTEN  =       -89.46664089 eV

  energy  without entropy=      -89.46664089  energy(sigma->0) =      -89.46664089

 BZINTS: Fermi energy:  1.011799; 76.000000 electrons
         Band energy:-397.406779;  BLOECHL correction:  0.000000