 vasp.5.3.3 18Dez12 (build May 12 2016 12:04:25) complex

 executed on             LinuxIFC date 2019.03.04  18:35:30

 INCAR:
 POTCAR:   PAW_PBE Mn 06Sep2000
 POTCAR:   PAW_PBE O_s 07Sep2000
 POTCAR:    PAW_PBE Li 17Jan2003
 POTCAR:   PAW_PBE Mn 06Sep2000

 POTCAR:   PAW_PBE O_s 07Sep2000

 POTCAR:    PAW_PBE Li 17Jan2003

 PAW_PBE Mn 06Sep2000                   :
 PAW_PBE O_s 07Sep2000                  :
  PAW_PBE Li 17Jan2003                  :

 POSCAR: Li Mn30 O62  (P1) ~ CONTCAR (VASP)
  positions in direct lattice
  velocities in cartesian coordinates
 exchange correlation table for  LEXCH =        8
   RHO(1)=    0.500       N(1)  =     2000
   RHO(2)=  100.500       N(2)  =     4000

 ion  position               nearest neighbor table
   1  0.077  0.259  0.620-  52 1.89  52 1.89  31 1.92  72 1.93  72 1.93  63 1.94  10 2.93  10 2.93

   2  0.058  0.256  0.526-  51 1.89  51 1.89  32 1.92  71 1.93  71 1.93  64 1.93   9 2.92   9 2.92

[...]

  20  0.577  0.760  0.641-  31 1.89  31 1.89  52 1.91  53 1.93  53 1.93  62 1.94  11 2.93  11 2.94

  21  0.954  0.762  0.688-  78 1.90  78 1.90  42 1.90  42 1.90  41 1.92  88 1.94
  22  0.955  0.763  0.732-  83 1.90  83 1.90  79 1.91  79 1.91  73 1.92  89 1.95
  23  0.969  0.764  0.778-  80 1.92  80 1.92  84 1.92  84 1.92  90 2.04  74 2.04  93 2.68  93 2.68
                            93 2.69  93 2.69
  24  0.991  0.766  0.825-  81 1.89  81 1.89  85 1.92  85 1.92  91 1.92  75 1.98
  25  0.004  0.767  0.870-  92 1.89  82 1.91  82 1.91  86 1.91  86 1.91  76 2.00
  26  0.457  0.263  0.710-  88 1.90  88 1.90  73 1.91  73 1.91  78 1.92  83 1.94
  27  0.457  0.264  0.754-  89 1.88  89 1.88  79 1.92  74 1.98  74 1.98  84 2.03  93 2.45
  28  0.484  0.265  0.803-  75 1.88  75 1.88  85 1.91  90 1.99  90 1.99  80 2.03  93 2.45
  29  0.490  0.266  0.847-  76 1.90  76 1.90  86 1.91  91 1.92  91 1.92  81 1.95
  30  0.481  0.267  0.892-  87 1.81  77 1.88  77 1.88  92 1.92  92 1.93  82 2.02
  31  0.407  0.260  0.632-  20 1.89  20 1.89   1 1.92
  32  0.376  0.256  0.539-  19 1.89  19 1.89   2 1.92
  33  0.637  0.750  0.205-   3 1.79
  34  0.358  0.253  0.445-  18 1.89  18 1.89   4 1.92
  35  0.691  0.750  0.298-  17 1.90  17 1.90   5 1.92
  36  0.315  0.251  0.352-  16 1.90  16 1.90   6 1.92
  37  0.672  0.752  0.393-  15 1.90  15 1.90   7 1.92
  38  0.325  0.250  0.256-  14 1.90  14 1.90   8 1.94
  39  0.637  0.754  0.488-  13 1.89  13 1.89   9 1.92
  40  0.639  0.757  0.582-  12 1.89  12 1.89  10 1.91
  41  0.627  0.761  0.676-  11 1.89  11 1.89  21 1.92
  42  0.120  0.262  0.678-  21 1.90  21 1.90  11 1.93
  43  0.139  0.258  0.585-  10 1.89  10 1.89  12 1.92
  44  0.137  0.255  0.492-   9 1.89   9 1.89  13 1.91
  45  0.827  0.750  0.250-   8 1.90   8 1.90  14 1.92
  46  0.172  0.252  0.399-   7 1.89   7 1.89  15 1.92
  47  0.815  0.751  0.345-   6 1.90   6 1.90  16 1.92
  48  0.192  0.250  0.304-   5 1.90   5 1.90  17 1.93
  49  0.858  0.753  0.441-   4 1.89   4 1.89  18 1.91
  50  0.131  0.250  0.207-   3 1.88   3 1.88
  51  0.876  0.756  0.535-   2 1.89   2 1.89  19 1.91
  52  0.908  0.759  0.629-   1 1.89   1 1.89  20 1.91
  53  0.741  0.260  0.652-  20 1.93  20 1.93  11 1.93
  54  0.734  0.257  0.558-  19 1.93  19 1.93  12 1.93
  55  0.726  0.253  0.464-  18 1.93  18 1.93  13 1.94
  56  0.286  0.750  0.280-  17 1.93  17 1.93  14 1.95
  57  0.718  0.251  0.369-  16 1.93  16 1.93  15 1.95
  58  0.279  0.751  0.375-  15 1.93  15 1.93  16 1.95
  59  0.724  0.250  0.274-  14 1.93  14 1.93  17 1.95
  60  0.278  0.754  0.469-  13 1.93  13 1.93  18 1.94
  61  0.286  0.757  0.563-  12 1.93  12 1.93  19 1.93
  62  0.291  0.761  0.656-  11 1.93  11 1.93  20 1.94
  63  0.793  0.258  0.605-  10 1.93  10 1.93   1 1.94
  64  0.782  0.255  0.511-   9 1.93   9 1.93   2 1.93
  65  0.214  0.750  0.232-   8 1.92   8 1.92   3 2.01
  66  0.786  0.252  0.417-   7 1.93   7 1.93   4 1.94
  67  0.221  0.751  0.328-   6 1.93   6 1.93   5 1.95
  68  0.785  0.251  0.321-   5 1.93   5 1.93   6 1.95
  69  0.230  0.752  0.422-   4 1.93   4 1.93   7 1.94
  70  0.770  0.250  0.227-   8 1.93   3 1.96   3 1.96
  71  0.231  0.755  0.516-   2 1.93   2 1.93   9 1.94
  72  0.243  0.759  0.609-   1 1.93   1 1.93  10 1.93
  73  0.619  0.763  0.720-  26 1.91  26 1.91  22 1.92
  74  0.621  0.764  0.765-  27 1.98  27 1.98  23 2.04  93 2.06  93 2.06
  75  0.657  0.765  0.812-  28 1.88  28 1.88  24 1.98
  76  0.662  0.766  0.857-  29 1.90  29 1.90  25 2.00
  77  0.628  0.767  0.902-  30 1.88  30 1.88
  78  0.792  0.262  0.698-  21 1.90  21 1.90  26 1.92
  79  0.795  0.264  0.742-  22 1.91  22 1.91  27 1.92
  80  0.803  0.265  0.789-  93 1.84  23 1.92  23 1.92  28 2.03
  81  0.818  0.266  0.835-  24 1.89  24 1.89  29 1.95
  82  0.843  0.267  0.880-  25 1.91  25 1.91  30 2.02
  83  0.122  0.263  0.722-  22 1.90  22 1.90  26 1.94
  84  0.134  0.264  0.768-  93 1.84  23 1.92  23 1.92  27 2.03
  85  0.150  0.266  0.815-  28 1.91  24 1.92  24 1.92
  86  0.157  0.267  0.859-  29 1.91  25 1.91  25 1.91
  87  0.149  0.264  0.902-  30 1.81
  88  0.292  0.763  0.700-  26 1.90  26 1.90  21 1.94
  89  0.289  0.764  0.744-  27 1.88  27 1.88  22 1.95
  90  0.317  0.765  0.791-  28 1.99  28 1.99  23 2.04  93 2.05  93 2.05
  91  0.322  0.766  0.837-  29 1.92  29 1.92  24 1.92
  92  0.345  0.767  0.880-  25 1.89  30 1.92  30 1.93
  93  0.468  0.264  0.778-  80 1.84  84 1.84  90 2.05  90 2.05  74 2.06  74 2.06  27 2.45  28 2.45
                            23 2.68  23 2.68  23 2.69  23 2.69

  LATTYP: Found a simple orthorhombic cell.
 ALAT       =     2.8659999400
 B/A-ratio  =     1.5816469242
 C/A-ratio  =    34.8918360410

  Lattice vectors:

 A1 = (   0.0000000000,  -2.8659999400,   0.0000000000)
 A2 = (  -4.5329999900,   0.0000000000,   0.0000000000)
 A3 = (   0.0000000000,   0.0000000000,-100.0000000000)

Analysis of symmetry for initial positions (statically):
 Subroutine PRICEL returns:
 Original cell was already a primitive cell.

 Routine SETGRP: Setting up the symmetry group for a
 simple orthorhombic supercell.

 Subroutine GETGRP returns: Found  1 space group operations
 (whereof  1 operations were pure point group operations)
 out of a pool of  8 trial point group operations.

The static configuration has the point symmetry C_1 .

Analysis of symmetry for dynamics (positions and initial velocities):
 Subroutine PRICEL returns:
 Original cell was already a primitive cell.

 Routine SETGRP: Setting up the symmetry group for a
 simple orthorhombic supercell.

 Subroutine GETGRP returns: Found  1 space group operations
 (whereof  1 operations were pure point group operations)
 out of a pool of  8 trial point group operations.

The dynamic configuration has the point symmetry C_1 .

Analysis of magnetic symmetry:

 Subroutine MAGSYM returns: Found  1 space group operations
 (whereof  1 operations were pure point group operations)
 out of a pool of  1 trial space group operations
 (whereof  1 operations were pure point group operations)
 and found also     1 'primitive' translations

The magnetic configuration has the point symmetry C_1 .

 irot  :   1
 isymop:   1   0   0
           0   1   0
           0   0   1

 gtrans:     0.0000000     0.0000000     0.0000000

 ptrans:     0.0000000     0.0000000     0.0000000
 rotmap:
 (   1->   1)  (   2->   2)  (   3->   3)  (   4->   4)  (   5->   5)
 (   6->   6)  (   7->   7)  (   8->   8)  (   9->   9)  (  10->  10)
 (  11->  11)  (  12->  12)  (  13->  13)  (  14->  14)  (  15->  15)
 (  16->  16)  (  17->  17)  (  18->  18)  (  19->  19)  (  20->  20)
 (  21->  21)  (  22->  22)  (  23->  23)  (  24->  24)  (  25->  25)
 (  26->  26)  (  27->  27)  (  28->  28)  (  29->  29)  (  30->  30)
 (  31->  31)  (  32->  32)  (  33->  33)  (  34->  34)  (  35->  35)
 (  36->  36)  (  37->  37)  (  38->  38)  (  39->  39)  (  40->  40)
 (  41->  41)  (  42->  42)  (  43->  43)  (  44->  44)  (  45->  45)
 (  46->  46)  (  47->  47)  (  48->  48)  (  49->  49)  (  50->  50)
 (  51->  51)  (  52->  52)  (  53->  53)  (  54->  54)  (  55->  55)
 (  56->  56)  (  57->  57)  (  58->  58)  (  59->  59)  (  60->  60)
 (  61->  61)  (  62->  62)  (  63->  63)  (  64->  64)  (  65->  65)
 (  66->  66)  (  67->  67)  (  68->  68)  (  69->  69)  (  70->  70)
 (  71->  71)  (  72->  72)  (  73->  73)  (  74->  74)  (  75->  75)
 (  76->  76)  (  77->  77)  (  78->  78)  (  79->  79)  (  80->  80)
 (  81->  81)  (  82->  82)  (  83->  83)  (  84->  84)  (  85->  85)
 (  86->  86)  (  87->  87)  (  88->  88)  (  89->  89)  (  90->  90)
 (  91->  91)  (  92->  92)  (  93->  93)

 KPOINTS: Automatic mesh

Automatic generation of k-mesh.
Space group operators:
 irot       det(A)        alpha          n_x          n_y          n_z        tau_x        tau_y        tau_z
    1     1.000000     0.000000     1.000000     0.000000     0.000000     0.000000     0.000000     0.000000

 Subroutine IBZKPT returns following result:

 Found      4 irreducible k-points:

 Following reciprocal coordinates:
            Coordinates               Weight
  0.000000  0.000000  0.000000      1.000000
  0.500000  0.000000  0.000000      1.000000
  0.000000  0.333333  0.000000      2.000000
  0.500000  0.333333  0.000000      2.000000

 Following cartesian coordinates:
            Coordinates               Weight
  0.000000  0.000000  0.000000      1.000000
  0.110302  0.000000  0.000000      1.000000
  0.000000  0.116306  0.000000      2.000000
  0.110302  0.116306  0.000000      2.000000

 TETIRR: Found     15 inequivalent tetrahedra from       36

 I would recommend the setting:
   dimension x,y,z NGX =    22 NGY =   14 NGZ =  489
 SYSTEM =  unknown system
 POSCAR =  Li Mn30 O62  (P1) ~ CONTCAR (VASP)

 Startparameter for this run:
   NWRITE =      1    write-flag & timer
   PREC   = normal    normal or accurate (medium, high low for compatibility)
   ISTART =      0    job   : 0-new  1-cont  2-samecut
   ICHARG =      2    charge: 1-file 2-atom 10-const
   ISPIN  =      2    spin polarized calculation?
   LNONCOLLINEAR =      F non collinear calculations
   LSORBIT =      F    spin-orbit coupling
   INIWAV =      1    electr: 0-lowe 1-rand  2-diag
   LASPH  =      F    aspherical Exc in radial PAW
   METAGGA=      F    non-selfconsistent MetaGGA calc.

 Electronic Relaxation 1
   ENCUT  =  400.0 eV  29.40 Ry    5.42 a.u.   7.39  4.67163.07*2*pi/ulx,y,z
   ENINI  =  400.0     initial cutoff
   ENAUG  =  500.7 eV  augmentation charge cutoff
   NELM   =     60;   NELMIN=  2; NELMDL= -5     # of ELM steps
   EDIFF  = 0.1E-03   stopping-criterion for ELM
   LREAL  =      F    real-space projection
   NLSPLINE    = F    spline interpolate recip. space projectors
   LCOMPAT=      F    compatible to vasp.4.4
   GGA_COMPAT  = T    GGA compatible to vasp.4.4-vasp.4.6
   LMAXPAW     = -100 max onsite density
   LMAXMIX     =    4 max onsite mixed and CHGCAR
   VOSKOWN=      1    Vosko Wilk Nusair interpolation
   ROPT   =    0.00000   0.00000   0.00000
 Ionic relaxation
   EDIFFG = 0.1E-02   stopping-criterion for IOM
   NSW    =      0    number of steps for IOM
   NBLOCK =      1;   KBLOCK =      1    inner block; outer block
   IBRION =     -1    ionic relax: 0-MD 1-quasi-New 2-CG
[...]

  length of vectors
     4.532999990  2.865999940100.000000000     0.220604457  0.348918360  0.010000000

 FORCES acting on ions
    electron-ion (+dipol)            ewald-force                    non-local-force                 convergence-correction
   -.115E+02 0.978E-02 -.120E+04   0.117E+02 -.984E-02 0.121E+04   -.265E+00 0.797E-03 -.978E+00   0.311E-02 0.308E-03 -.863E+01
   -.159E+02 0.531E-02 0.884E+03   0.159E+02 -.602E-02 -.885E+03   -.941E-01 0.848E-03 -.104E+01   0.499E-01 0.896E-04 0.132E+01
   -.228E+02 -.575E-03 0.752E+04   0.228E+02 0.444E-03 -.753E+04   0.217E-01 0.733E-04 0.791E+00   -.100E+00 0.141E-03 0.702E+01
   -.869E+01 0.199E-01 0.296E+04   0.889E+01 -.198E-01 -.296E+04   -.408E-01 0.657E-04 -.108E+01   -.123E+00 0.286E-03 0.524E+01
   0.111E+02 -.109E-02 0.560E+04   -.109E+02 0.103E-02 -.560E+04   -.199E+00 0.334E-04 0.982E+00   -.994E-01 0.998E-04 -.195E+01
   -.957E+01 0.112E-01 0.498E+04   0.936E+01 -.108E-01 -.498E+04   0.153E+00 -.267E-04 -.906E+00   -.302E-02 -.886E-04 -.216E+01
   0.196E+02 -.649E-02 0.358E+04   -.197E+02 0.706E-02 -.358E+04   -.159E+00 0.389E-04 0.962E+00   0.316E+00 0.814E-04 0.471E+01
   -.231E+02 0.151E-01 0.696E+04   0.230E+02 -.146E-01 -.697E+04   0.151E+00 -.250E-03 -.765E+00   0.183E-03 0.367E-04 0.614E+01
   0.157E+02 0.694E-03 0.151E+04   -.158E+02 -.334E-03 -.151E+04   0.897E-01 -.186E-03 0.104E+01   0.966E-02 0.567E-04 0.129E+01
   0.192E+02 0.824E-02 -.573E+03   -.193E+02 -.800E-02 0.578E+03   0.103E+00 0.647E-03 0.112E+01   0.847E-01 0.412E-04 -.547E+01
   0.169E+02 -.846E-02 -.225E+04   -.170E+02 0.733E-02 0.226E+04   0.166E+00 0.158E-02 -.914E+00   -.246E-01 0.248E-03 -.134E+02
   0.106E+02 0.240E-01 -.157E+03   -.108E+02 -.246E-01 0.159E+03   0.159E+00 0.515E-03 -.106E+01   0.566E-01 -.129E-04 -.471E+00
   0.107E+02 0.168E-01 0.193E+04   -.108E+02 -.170E-01 -.193E+04   0.121E+00 0.571E-03 -.105E+01   0.130E-01 0.129E-03 0.719E+00
   -.715E+01 -.200E-02 0.658E+04   0.707E+01 0.218E-02 -.659E+04   0.195E+00 0.754E-04 0.997E+00   -.177E+00 -.183E-05 0.262E+01
   0.739E+01 0.106E-01 0.397E+04   -.708E+01 -.107E-01 -.398E+04   -.421E-01 0.201E-05 -.101E+01   -.303E+00 0.399E-04 0.296E+01
   -.153E+02 -.534E-02 0.460E+04   0.151E+02 0.538E-02 -.460E+04   0.201E+00 0.379E-03 0.973E+00   -.965E-02 -.340E-04 -.629E+00
   0.143E+02 0.103E-01 0.597E+04   -.140E+02 -.100E-01 -.597E+04   -.237E+00 -.912E-04 -.871E+00   0.460E-01 -.120E-03 -.846E+00
   -.183E+02 -.429E-02 0.255E+04   0.183E+02 0.523E-02 -.255E+04   0.380E-01 -.128E-03 0.107E+01   -.210E-01 -.312E-03 0.130E+01
   -.135E+02 0.415E-02 0.467E+03   0.136E+02 -.351E-02 -.469E+03   -.941E-01 0.377E-03 0.105E+01   0.604E-02 -.141E-03 0.140E+01
   -.138E+02 0.751E-02 -.162E+04   0.141E+02 -.696E-02 0.163E+04   -.234E+00 0.319E-03 0.112E+01   -.273E-01 -.289E-03 -.118E+02
   -.183E+01 -.938E-02 -.276E+04   0.175E+01 0.862E-02 0.278E+04   0.127E-01 0.768E-03 0.141E+00   0.531E-01 0.750E-04 -.141E+02
   0.833E+00 -.104E-01 -.396E+04   -.910E+00 0.989E-02 0.397E+04   0.742E-01 0.974E-03 0.293E+00   0.279E-01 -.803E-04 -.134E+02
   -.132E+01 -.199E-02 -.510E+04   0.131E+01 0.205E-02 0.511E+04   0.921E-02 0.601E-03 0.181E-02   0.145E-01 -.711E-04 -.442E+01
   -.151E+01 0.211E-01 -.623E+04   0.150E+01 -.210E-01 0.623E+04   -.354E-02 -.160E-02 -.313E+00   -.188E-01 0.186E-05 0.297E+01
   0.225E+02 -.329E-01 -.741E+04   -.223E+02 0.325E-01 0.740E+04   -.324E+00 0.108E-02 -.136E+00   0.222E-01 -.266E-03 0.435E+01
   0.619E+00 0.143E-02 -.336E+04   -.526E+00 -.199E-02 0.338E+04   -.262E-01 0.317E-03 0.118E+00   -.442E-01 -.243E-04 -.147E+02
   -.180E+01 -.188E-01 -.453E+04   0.201E+01 0.163E-01 0.454E+04   -.149E+00 0.192E-02 0.149E+01   -.625E-01 -.118E-04 -.942E+01
   0.245E+01 0.280E-01 -.567E+04   -.256E+01 -.248E-01 0.567E+04   0.867E-01 -.198E-02 -.147E+01   0.573E-01 0.851E-04 0.123E+00
   -.523E+01 0.334E-01 -.682E+04   0.521E+01 -.330E-01 0.681E+04   -.301E-01 -.111E-02 -.144E+00   0.106E-01 -.790E-04 0.443E+01
   -.308E+02 -.281E+00 -.796E+04   0.310E+02 0.277E+00 0.796E+04   -.167E+00 -.229E-02 -.742E+00   -.976E-02 0.213E-02 0.295E+01
   0.164E+02 -.975E-01 -.118E+04   -.161E+02 0.149E+00 0.118E+04   -.185E+00 -.505E-01 0.117E+02   -.167E-02 0.253E-03 -.886E+01
   0.261E+02 -.713E-01 0.590E+03   -.284E+02 0.109E+00 -.599E+03   0.226E+01 -.376E-01 0.792E+01   0.368E-02 0.156E-03 0.120E+01
   0.111E+03 0.137E-02 0.660E+04   -.136E+03 -.304E-02 -.663E+04   0.239E+02 0.126E-02 0.202E+02   0.286E+00 -.948E-04 0.562E+01
   0.303E+02 -.529E-01 0.236E+04   -.343E+02 0.821E-01 -.237E+04   0.398E+01 -.289E-01 0.589E+01   -.243E-01 0.184E-03 0.259E+01
   -.460E+02 0.178E-01 0.499E+04   0.551E+02 -.295E-01 -.499E+04   -.876E+01 0.120E-01 0.122E+00   -.293E+00 0.130E-03 -.138E+01
   0.450E+02 -.306E-01 0.407E+04   -.540E+02 0.477E-01 -.407E+04   0.927E+01 -.170E-01 0.108E+01   -.193E+00 -.417E-04 -.117E+01
   -.405E+02 0.326E-01 0.326E+04   0.473E+02 -.509E-01 -.326E+04   -.713E+01 0.186E-01 -.337E+01   0.241E+00 -.154E-03 0.344E+01
   0.436E+02 -.113E-01 0.578E+04   -.521E+02 0.181E-01 -.579E+04   0.834E+01 -.708E-02 0.204E+01   0.154E+00 0.395E-04 0.381E+01
   -.261E+02 0.635E-01 0.146E+04   0.282E+02 -.102E+00 -.146E+04   -.202E+01 0.396E-01 -.823E+01   -.190E-01 -.171E-03 0.849E+00
   -.234E+02 0.575E-01 -.328E+03   0.245E+02 -.934E-01 0.339E+03   -.123E+01 0.365E-01 -.918E+01   0.560E-01 0.312E-03 -.226E+01
   -.267E+02 0.853E-01 -.213E+04   0.253E+02 -.133E+00 0.215E+04   0.150E+01 0.477E-01 -.102E+02   -.118E-01 0.394E-04 -.118E+02
   -.419E+01 -.756E-01 -.209E+04   0.218E+01 0.114E+00 0.209E+04   0.193E+01 -.382E-01 0.133E+02   0.153E-01 -.353E-03 -.118E+02
   -.216E+02 -.631E-01 -.295E+03   0.231E+02 0.102E+00 0.289E+03   -.144E+01 -.382E-01 0.906E+01   -.198E-01 -.179E-03 -.277E+01
   -.241E+02 -.734E-01 0.148E+04   0.262E+02 0.114E+00 -.149E+04   -.212E+01 -.406E-01 0.836E+01   0.366E-01 0.241E-03 0.923E+00
   0.395E+02 0.140E-01 0.583E+04   -.462E+02 -.213E-01 -.583E+04   0.693E+01 0.692E-02 -.294E+01   -.267E+00 0.156E-04 0.438E+01
   -.386E+02 -.377E-01 0.322E+04   0.457E+02 0.565E-01 -.322E+04   -.679E+01 -.181E-01 0.253E+01   -.202E+00 -.127E-03 0.367E+01
   0.461E+02 0.276E-01 0.414E+04   -.549E+02 -.450E-01 -.414E+04   0.868E+01 0.177E-01 0.188E-01   0.767E-01 0.157E-03 -.157E+01
   -.470E+02 -.236E-01 0.492E+04   0.565E+02 0.358E-01 -.492E+04   -.976E+01 -.118E-01 0.773E+00   0.222E+00 -.265E-03 -.167E+01
   0.321E+02 0.487E-01 0.236E+04   -.359E+02 -.771E-01 -.236E+04   0.399E+01 0.293E-01 -.644E+01   -.902E-01 -.435E-03 0.308E+01
   -.118E+03 -.146E-01 0.662E+04   0.139E+03 0.178E-01 -.665E+04   -.204E+02 -.228E-02 0.285E+02   -.640E-01 -.133E-04 0.619E+01
   0.237E+02 0.677E-01 0.568E+03   -.257E+02 -.104E+00 -.561E+03   0.201E+01 0.371E-01 -.859E+01   0.507E-02 -.157E-03 0.125E+01
   0.166E+02 0.793E-01 -.124E+04   -.152E+02 -.130E+00 0.126E+04   -.148E+01 0.517E-01 -.111E+02   0.140E-02 -.128E-03 -.862E+01
   -.173E+03 0.764E-01 -.166E+04   0.208E+03 -.111E+00 0.168E+04   -.346E+02 0.341E-01 -.784E+01   0.988E-02 0.378E-03 -.108E+02
   -.180E+03 0.560E-01 0.144E+03   0.215E+03 -.814E-01 -.138E+03   -.352E+02 0.252E-01 -.700E+01   0.661E-01 0.154E-03 0.908E+00
   -.181E+03 0.465E-01 0.194E+04   0.216E+03 -.710E-01 -.193E+04   -.350E+02 0.247E-01 -.657E+01   -.132E+00 0.276E-03 0.521E+00
   0.185E+03 -.174E-01 0.535E+04   -.220E+03 0.235E-01 -.535E+04   0.352E+02 -.570E-02 0.515E+01   0.355E+00 0.103E-03 0.253E+00
   -.186E+03 0.228E-01 0.371E+04   0.221E+03 -.350E-01 -.370E+04   -.353E+02 0.123E-01 -.487E+01   0.497E+00 0.322E-03 0.478E+00
   0.185E+03 -.288E-01 0.364E+04   -.220E+03 0.418E-01 -.364E+04   0.354E+02 -.124E-01 0.506E+01   -.584E+00 -.394E-03 0.121E+01
   -.184E+03 0.942E-02 0.542E+04   0.219E+03 -.153E-01 -.542E+04   -.353E+02 0.620E-02 -.467E+01   -.366E+00 -.896E-04 0.104E+01
   0.180E+03 -.598E-01 0.191E+04   -.215E+03 0.840E-01 -.191E+04   0.351E+02 -.238E-01 0.686E+01   0.999E-01 0.210E-04 0.461E+00
[...]
   0.552E+01 0.281E-01 -.463E+04   -.172E+01 -.490E-01 0.465E+04   -.375E+01 0.220E-01 -.162E+02   -.306E-01 -.303E-03 -.180E+01
   0.177E+02 0.388E-01 -.559E+04   -.186E+02 -.559E-01 0.560E+04   0.102E+01 0.174E-01 -.114E+02   -.524E-01 -.598E-04 0.334E+01
   0.192E+02 0.753E-02 -.664E+04   -.222E+02 -.255E-01 0.665E+04   0.309E+01 0.139E-01 -.148E+02   -.724E-01 0.142E-02 0.325E+01
   -.144E+02 -.512E-01 -.313E+04   0.125E+02 0.803E-01 0.313E+04   0.175E+01 -.289E-01 0.127E+02   0.112E+00 -.123E-03 -.125E+02
   -.591E+01 -.263E-01 -.411E+04   0.178E+01 0.420E-01 0.410E+04   0.419E+01 -.170E-01 0.165E+02   -.657E-01 0.647E-03 -.577E+01
   -.928E+01 -.534E-01 -.507E+04   0.346E+01 0.839E-01 0.505E+04   0.610E+01 -.299E-01 0.127E+02   -.265E+00 -.208E-03 0.149E+01
   -.309E+01 -.169E-01 -.607E+04   -.373E+01 0.369E-01 0.605E+04   0.690E+01 -.201E-01 0.133E+02   -.135E+00 -.192E-02 0.397E+01
   0.101E+03 0.675E-01 -.705E+04   -.125E+03 -.160E+00 0.707E+04   0.238E+02 0.106E+00 -.192E+02   0.981E-01 -.276E-02 0.209E+01
   0.145E+02 -.670E-01 -.261E+04   -.118E+02 0.978E-01 0.261E+04   -.266E+01 -.305E-01 0.133E+02   -.123E-01 -.264E-03 -.125E+02
   0.179E+02 -.415E-01 -.364E+04   -.181E+02 0.678E-01 0.364E+04   0.363E+00 -.264E-01 0.119E+02   -.217E+00 0.609E-05 -.101E+02
   0.240E+02 -.519E-01 -.460E+04   -.293E+02 0.725E-01 0.460E+04   0.510E+01 -.196E-01 0.404E+01   0.138E+00 -.134E-03 -.185E+01
   0.133E+02 -.575E-01 -.557E+04   -.902E+01 0.811E-01 0.556E+04   -.438E+01 -.228E-01 0.116E+02   0.130E+00 0.414E-03 0.333E+01
   -.663E+01 0.393E-01 -.656E+04   0.170E+02 -.936E-02 0.654E+04   -.107E+02 -.280E-01 0.132E+02   0.154E+00 -.615E-02 0.327E+01
   0.121E+00 -.227E-02 -.729E+03   -.109E+00 0.181E-02 0.729E+03   -.514E-02 0.447E-03 -.171E-01   -.374E-03 0.478E-06 -.629E+00
   -.113E+02 -.550E-01 0.127E+03   -.218E-12 0.343E-12 0.364E-11   0.117E+02 0.753E-01 0.595E+01   -.409E+00 -.159E-02 -.133E+03

 POSITION                                       TOTAL-FORCE (eV/Angst)
      0.34706      0.74159     61.96395        -0.054514      0.000842     -0.159846
      0.26352      0.73241     52.60902         0.021375      0.000033      0.082182
      4.29860      2.14887     21.61818        -0.114919     -0.000118     -0.047030
      0.22216      0.72357     43.23001         0.044930      0.000230      0.228584
      4.43319      2.15088     31.19876        -0.063980     -0.000129     -0.224437
      0.12665      0.71863     33.75659        -0.060288      0.000063     -0.248196
      4.39197      2.15512     40.70343         0.093149      0.000483      0.192464
      0.14103      0.71608     24.20695         0.052733      0.000039      0.124372
      4.32535      2.16318     50.10796         0.017347      0.000030      0.001150
      4.35516      2.17243     59.46593         0.023590      0.000729      0.142498
      2.06959      0.74775     66.62771         0.032450      0.000496     -0.222760
      2.08487      0.73696     57.29254         0.005130     -0.000275      0.092051
      2.05818      0.72755     47.93033        -0.002524      0.000306     -0.064554
      2.41571      2.14957     26.43039        -0.061207      0.000053     -0.040138
      2.12274      0.72083     38.50380        -0.037088     -0.000242      0.109496
      2.39157      2.15281     35.95905         0.007921      0.000189     -0.128988
      2.16652      0.71705     28.98804         0.067862     -0.000096     -0.102390
      2.48905      2.15855     45.41788        -0.033602      0.000300      0.034849
      2.53502      2.16783     54.78580        -0.043584      0.000671      0.188387
      2.61652      2.17790     64.12636         0.020825      0.000378     -0.068693
      4.32649      2.18364     68.80762        -0.016543     -0.000117     -0.137104
      4.33020      2.18790     73.19520         0.026191      0.000135     -0.065616
      4.39312      2.19094     77.83477         0.009722      0.000386      0.044830
      4.49036      2.19433     82.49932        -0.026326     -0.001714      0.095300
      0.01823      2.19718     86.95294        -0.067131      0.000266      0.075004
      2.07020      0.75291     70.99885         0.022812     -0.000466     -0.117076
      2.07007      0.75662     75.38901        -0.004702     -0.000815      0.001835
      2.19363      0.75957     80.28574         0.031486      0.001056      0.110220
      2.21938      0.76276     84.72296        -0.040141     -0.000920      0.058498
      2.18015      0.76521     89.16528         0.107508     -0.004361      0.132973
      1.84677      0.74423     63.16280         0.044958      0.000861      0.051786
      1.70527      0.73435     53.87394        -0.033914      0.000114     -0.079687
      2.88909      2.14876     20.51235         0.070360     -0.000710      0.145169
      1.62471      0.72520     44.53859        -0.051726      0.000265     -0.073655
      3.13359      2.15017     29.77903         0.078338      0.000181      0.101573
      1.42812      0.71962     35.16974         0.095781     -0.000100      0.116903
      3.04738      2.15404     39.33469        -0.079682     -0.000072     -0.133091
      1.47410      0.71650     25.61239        -0.014079     -0.000409     -0.030897
      2.88541      2.16096     48.84523         0.022672      0.000292      0.017909
      2.89835      2.17033     58.22560        -0.073512      0.000688     -0.042326
      2.84227      2.18133     67.58905         0.055627     -0.000162      0.094784
      0.54540      0.75018     67.80671        -0.066764     -0.000164      0.087606
      0.62903      0.73900     58.53883         0.016178     -0.000133     -0.079726
      0.61895      0.72968     49.19184        -0.032460      0.000240      0.025107
      3.74732      2.14919     25.04389         0.036968     -0.000541     -0.085594
      0.77914      0.72189     39.87525         0.077686      0.000326     -0.099724
      3.69470      2.15181     34.54645        -0.066381      0.000255      0.106598
      0.87039      0.71772     30.41508        -0.072524      0.000009      0.103361
      3.88986      2.15689     44.11283         0.037173      0.000279     -0.085456
      0.59501      0.71576     20.72428         0.006610      0.000727      0.122807
      3.97243      2.16584     53.52773         0.067448     -0.000002     -0.071979
      4.11491      2.17513     62.93699        -0.035405      0.000376      0.062775
      3.36072      0.74540     65.18832        -0.001206      0.000127      0.078291
      3.32552      0.73519     55.81151         0.019027     -0.000223     -0.070221
      3.29069      0.72587     46.43551         0.000742      0.000333      0.001889
      1.29822      2.14993     28.03106        -0.023641      0.000282      0.050019
      3.25426      0.71997     36.92084        -0.015917      0.000174     -0.006572
      1.26399      2.15362     37.54432         0.030184      0.000047      0.012238
      3.28216      0.71664     27.39363        -0.003877      0.000071     -0.002069
      1.26194      2.16015     46.91421        -0.000679      0.000231      0.023174
[...]
      3.60466      0.75525     74.23088        -0.076761     -0.000700      0.039141
      3.64193      0.75816     78.86887         0.018791      0.000679     -0.031321
      3.70644      0.76152     83.45785         0.088846     -0.000023     -0.059961
      3.81907      0.76451     87.97841         0.057005     -0.002846      0.023047
      0.55343      0.75457     72.20770        -0.034061     -0.000245      0.061640
      0.60661      0.75775     76.79186        -0.000387     -0.000848      0.047679
      0.68188      0.76094     81.45376         0.022395      0.000113     -0.033042
      0.70976      0.76405     85.89392        -0.049110     -0.002191     -0.023355
      0.67399      0.75722     90.16555        -0.023801      0.009995     -0.115986
      1.32411      2.18549     70.00063         0.022054     -0.000214      0.051229
      1.30841      2.18933     74.43077        -0.040826     -0.000336      0.055026
      1.43473      2.19196     79.13590        -0.060259      0.000658      0.053825
      1.46180      2.19537     83.69840         0.029254      0.001020     -0.027742
      1.56305      2.19777     88.03773        -0.103861     -0.004349     -0.113428
      2.12120      0.75790     77.83721         0.007393     -0.000210      0.008620
    total drift:                               -0.039901      0.018682      0.008069

  FREE ENERGIE OF THE ION-ELECTRON SYSTEM (eV)
  free  energy   TOTEN  =      -644.19979177 eV

  energy  without entropy=     -644.19979177  energy(sigma->0) =     -644.19979177

 BZINTS: Fermi energy:  0.532667;583.000000 electrons
         Band energy:***********;  BLOECHL correction: -0.065966