 vasp.5.3.3 18Dez12 (build May 12 2016 12:04:25) complex

 executed on             LinuxIFC date 2019.05.18  10:29:56

 INCAR:
 POTCAR:    PAW_PBE O 08Apr2002
 POTCAR:    PAW_PBE Mn 06Sep2000
 POTCAR:    PAW_PBE O 08Apr2002

 POTCAR:    PAW_PBE Mn 06Sep2000

  PAW_PBE O 08Apr2002                   :
  PAW_PBE Mn 06Sep2000                  :

 POSCAR: (Mn O2)2  (P4_2/mnm) ~  (Pearson #311740
  positions in direct lattice
  velocities in cartesian coordinates
 exchange correlation table for  LEXCH =       14
   RHO(1)=    0.500       N(1)  =     2000
   RHO(2)=  100.500       N(2)  =     4000

 ion  position               nearest neighbor table
   1  0.305  0.305  0.000-   6 1.88   6 1.88   5 1.91
   2  0.805  0.195  0.500-   5 1.88   5 1.88   6 1.91
   3  0.195  0.805  0.500-   5 1.88   5 1.88   6 1.91
   4  0.695  0.695  0.000-   6 1.88   6 1.88   5 1.91
   5  0.000  0.000  0.000-   2 1.88   3 1.88   2 1.88   3 1.88   1 1.91   4 1.91
   6  0.500  0.500  0.500-   1 1.88   4 1.88   1 1.88   4 1.88   3 1.91   2 1.91

  LATTYP: Found a simple tetragonal cell.
 ALAT       =     4.4200000000
 C/A-ratio  =     0.6493212670

  Lattice vectors:

 A1 = (   4.4200000000,   0.0000000000,   0.0000000000)
 A2 = (   0.0000000000,   4.4200000000,   0.0000000000)
 A3 = (   0.0000000000,   0.0000000000,   2.8700000000)

Analysis of symmetry for initial positions (statically):
 Subroutine PRICEL returns:
 Original cell was already a primitive cell.

 Routine SETGRP: Setting up the symmetry group for a
 simple tetragonal supercell.

 Subroutine GETGRP returns: Found 16 space group operations
 (whereof  8 operations were pure point group operations)
 out of a pool of 16 trial point group operations.

The static configuration has the point symmetry D_2h.
 The point group associated with its full space group is D_4h.

Analysis of symmetry for dynamics (positions and initial velocities):
 Subroutine PRICEL returns:
 Original cell was already a primitive cell.

 Routine SETGRP: Setting up the symmetry group for a
 simple tetragonal supercell.

 Subroutine GETGRP returns: Found 16 space group operations
 (whereof  8 operations were pure point group operations)
 out of a pool of 16 trial point group operations.

The dynamic configuration has the point symmetry D_2h.
 The point group associated with its full space group is D_4h.

Analysis of magnetic symmetry:

 Subroutine MAGSYM returns: Found 16 space group operations
 (whereof  8 operations were pure point group operations)
 out of a pool of 16 trial space group operations
 (whereof  8 operations were pure point group operations)
 and found also     1 'primitive' translations

The magnetic configuration has the point symmetry D_2h.
 The point group associated with its full space group is D_4h.

 irot  :   1
 isymop:   1   0   0
           0   1   0
           0   0   1

 gtrans:     0.0000000     0.0000000     0.0000000

 ptrans:     0.0000000     0.0000000     0.0000000
 rotmap:
 (   1->   1)  (   2->   2)  (   3->   3)  (   4->   4)  (   5->   5)
 (   6->   6)

[...]

 irot  :  16
 isymop:  -1   0   0
           0   1   0
           0   0   1

 gtrans:     0.5000000     0.5000000     0.5000000

 ptrans:     0.0000000     0.0000000     0.0000000
 rotmap:
 (   1->   3)  (   2->   4)  (   3->   1)  (   4->   2)  (   5->   6)
 (   6->   5)

 KPOINTS: Automatic mesh

Automatic generation of k-mesh.
Space group operators:
 irot       det(A)        alpha          n_x          n_y          n_z        tau_x        tau_y        tau_z
    1     1.000000     0.000000     1.000000     0.000000     0.000000     0.000000     0.000000     0.000000
    2    -1.000000     0.000000     1.000000     0.000000     0.000000     0.000000     0.000000     0.000000
    3     1.000000   180.000000     0.000000     0.000000     1.000000     0.000000     0.000000     0.000000
    4    -1.000000   180.000000     0.000000     0.000000     1.000000     0.000000     0.000000     0.000000
    5     1.000000   180.000000     0.707107     0.707107     0.000000     0.000000     0.000000     0.000000
    6    -1.000000   180.000000     0.707107     0.707107     0.000000     0.000000     0.000000     0.000000
    7     1.000000   180.000000     0.707107    -0.707107     0.000000     0.000000     0.000000     0.000000
    8    -1.000000   180.000000     0.707107    -0.707107     0.000000     0.000000     0.000000     0.000000
    9     1.000000    90.000000     0.000000     0.000000    -1.000000     0.500000     0.500000     0.500000
   10    -1.000000    90.000000     0.000000     0.000000    -1.000000     0.500000     0.500000     0.500000
   11     1.000000    90.000000     0.000000     0.000000     1.000000     0.500000     0.500000     0.500000
   12    -1.000000    90.000000     0.000000     0.000000     1.000000     0.500000     0.500000     0.500000
   13     1.000000   180.000000     0.000000     1.000000     0.000000     0.500000     0.500000     0.500000
   14    -1.000000   180.000000     0.000000     1.000000     0.000000     0.500000     0.500000     0.500000
   15     1.000000   180.000000     1.000000     0.000000     0.000000     0.500000     0.500000     0.500000
   16    -1.000000   180.000000     1.000000     0.000000     0.000000     0.500000     0.500000     0.500000

 Subroutine IBZKPT returns following result:

 Found     50 irreducible k-points:

 Following reciprocal coordinates:
            Coordinates               Weight
  0.000000  0.000000  0.000000      1.000000
  0.166667  0.000000  0.000000      4.000000
  0.333333  0.000000  0.000000      4.000000
  0.500000  0.000000  0.000000      2.000000
  0.166667  0.166667  0.000000      4.000000
  0.333333  0.166667  0.000000      8.000000
  0.500000  0.166667  0.000000      4.000000
  0.333333  0.333333  0.000000      4.000000
  0.500000  0.333333  0.000000      4.000000
  0.500000  0.500000  0.000000      1.000000
  0.000000  0.000000  0.111111      2.000000
  0.166667  0.000000  0.111111      8.000000
  0.333333  0.000000  0.111111      8.000000
  0.500000  0.000000  0.111111      4.000000
  0.166667  0.166667  0.111111      8.000000
  0.333333  0.166667  0.111111     16.000000
  0.500000  0.166667  0.111111      8.000000
  0.333333  0.333333  0.111111      8.000000
  0.500000  0.333333  0.111111      8.000000
  0.500000  0.500000  0.111111      2.000000
  0.000000  0.000000  0.222222      2.000000
  0.166667  0.000000  0.222222      8.000000
  0.333333  0.000000  0.222222      8.000000
  0.500000  0.000000  0.222222      4.000000
  0.166667  0.166667  0.222222      8.000000
  0.333333  0.166667  0.222222     16.000000
  0.500000  0.166667  0.222222      8.000000
  0.333333  0.333333  0.222222      8.000000
  0.500000  0.333333  0.222222      8.000000
  0.500000  0.500000  0.222222      2.000000
  0.000000  0.000000  0.333333      2.000000
  0.166667  0.000000  0.333333      8.000000
  0.333333  0.000000  0.333333      8.000000
  0.500000  0.000000  0.333333      4.000000
  0.166667  0.166667  0.333333      8.000000
  0.333333  0.166667  0.333333     16.000000
  0.500000  0.166667  0.333333      8.000000
  0.333333  0.333333  0.333333      8.000000
  0.500000  0.333333  0.333333      8.000000
  0.500000  0.500000  0.333333      2.000000
  0.000000  0.000000  0.444444      2.000000
  0.166667  0.000000  0.444444      8.000000
  0.333333  0.000000  0.444444      8.000000
  0.500000  0.000000  0.444444      4.000000
  0.166667  0.166667  0.444444      8.000000
  0.333333  0.166667  0.444444     16.000000
  0.500000  0.166667  0.444444      8.000000
  0.333333  0.333333  0.444444      8.000000
  0.500000  0.333333  0.444444      8.000000
  0.500000  0.500000  0.444444      2.000000

 Following cartesian coordinates:
            Coordinates               Weight
  0.000000  0.000000  0.000000      1.000000
  0.037707  0.000000  0.000000      4.000000
  0.075415  0.000000  0.000000      4.000000
  0.113122  0.000000  0.000000      2.000000
  0.037707  0.037707  0.000000      4.000000
  0.075415  0.037707  0.000000      8.000000
  0.113122  0.037707  0.000000      4.000000
  0.075415  0.075415  0.000000      4.000000
  0.113122  0.075415  0.000000      4.000000
  0.113122  0.113122  0.000000      1.000000
  0.000000  0.000000  0.038715      2.000000
  0.037707  0.000000  0.038715      8.000000
  0.075415  0.000000  0.038715      8.000000
  0.113122  0.000000  0.038715      4.000000
  0.037707  0.037707  0.038715      8.000000
  0.075415  0.037707  0.038715     16.000000
  0.113122  0.037707  0.038715      8.000000
  0.075415  0.075415  0.038715      8.000000
  0.113122  0.075415  0.038715      8.000000
  0.113122  0.113122  0.038715      2.000000
  0.000000  0.000000  0.077429      2.000000
  0.037707  0.000000  0.077429      8.000000
  0.075415  0.000000  0.077429      8.000000
  0.113122  0.000000  0.077429      4.000000
  0.037707  0.037707  0.077429      8.000000
  0.075415  0.037707  0.077429     16.000000
  0.113122  0.037707  0.077429      8.000000
  0.075415  0.075415  0.077429      8.000000
  0.113122  0.075415  0.077429      8.000000
  0.113122  0.113122  0.077429      2.000000
  0.000000  0.000000  0.116144      2.000000
  0.037707  0.000000  0.116144      8.000000
  0.075415  0.000000  0.116144      8.000000
  0.113122  0.000000  0.116144      4.000000
  0.037707  0.037707  0.116144      8.000000
  0.075415  0.037707  0.116144     16.000000
  0.113122  0.037707  0.116144      8.000000
  0.075415  0.075415  0.116144      8.000000
  0.113122  0.075415  0.116144      8.000000
  0.113122  0.113122  0.116144      2.000000
  0.000000  0.000000  0.154859      2.000000
  0.037707  0.000000  0.154859      8.000000
  0.075415  0.000000  0.154859      8.000000
  0.113122  0.000000  0.154859      4.000000
  0.037707  0.037707  0.154859      8.000000
  0.075415  0.037707  0.154859     16.000000
  0.113122  0.037707  0.154859      8.000000
  0.075415  0.075415  0.154859      8.000000
  0.113122  0.075415  0.154859      8.000000
  0.113122  0.113122  0.154859      2.000000

 I would recommend the setting:
   dimension x,y,z NGX =    25 NGY =   25 NGZ =   16
 SYSTEM =  (Mn O2)2  (P4_2/mnm) ~  (Pearson
 POSCAR =  (Mn O2)2  (P4_2/mnm) ~  (Pearson #311740

 Startparameter for this run:
   NWRITE =      1    write-flag & timer
   PREC   = normal    normal or accurate (medium, high low for compatibility)
   ISTART =      0    job   : 0-new  1-cont  2-samecut
   ICHARG =      2    charge: 1-file 2-atom 10-const
   ISPIN  =      2    spin polarized calculation?
   LNONCOLLINEAR =      F non collinear calculations
   LSORBIT =      F    spin-orbit coupling
   INIWAV =      1    electr: 0-lowe 1-rand  2-diag
   LASPH  =      F    aspherical Exc in radial PAW
   METAGGA=      F    non-selfconsistent MetaGGA calc.

 Electronic Relaxation 1
   ENCUT  =  520.0 eV  38.22 Ry    6.18 a.u.   8.22  8.22  5.34*2*pi/ulx,y,z
   ENINI  =  520.0     initial cutoff
   ENAUG  =  605.4 eV  augmentation charge cutoff
   NELM   =     60;   NELMIN=  2; NELMDL= -5     # of ELM steps
   EDIFF  = 0.1E-03   stopping-criterion for ELM
   LREAL  =      F    real-space projection
   NLSPLINE    = F    spline interpolate recip. space projectors
[...]
 k-point 37 :   0.5000 0.1667 0.3333  plane waves:    1508
 k-point 38 :   0.3333 0.3333 0.3333  plane waves:    1516
 k-point 39 :   0.5000 0.3333 0.3333  plane waves:    1504
 k-point 40 :   0.5000 0.5000 0.3333  plane waves:    1516
 k-point 41 :   0.0000 0.0000 0.4444  plane waves:    1530
 k-point 42 :   0.1667 0.0000 0.4444  plane waves:    1507
 k-point 43 :   0.3333 0.0000 0.4444  plane waves:    1501
 k-point 44 :   0.5000 0.0000 0.4444  plane waves:    1518
 k-point 45 :   0.1667 0.1667 0.4444  plane waves:    1517
 k-point 46 :   0.3333 0.1667 0.4444  plane waves:    1506
 k-point 47 :   0.5000 0.1667 0.4444  plane waves:    1502
 k-point 48 :   0.3333 0.3333 0.4444  plane waves:    1503
 k-point 49 :   0.5000 0.3333 0.4444  plane waves:    1508
 k-point 50 :   0.5000 0.5000 0.4444  plane waves:    1504

 maximum and minimum number of plane-waves per node :       400      366

 maximum number of plane-waves:      1543
 maximum index in each direction:
   IXMAX=    8   IYMAX=    8   IZMAX=    5
   IXMIN=   -8   IYMIN=   -8   IZMIN=   -5

 WARNING: aliasing errors must be expected set NGX to  34 to avoid them
 WARNING: aliasing errors must be expected set NGY to  34 to avoid them
 WARNING: aliasing errors must be expected set NGZ to  22 to avoid them
 aliasing errors are usually negligible using standard VASP settings
 and one can safely disregard these warnings

 parallel 3D FFT for wavefunctions:
    minimum data exchange during FFTs selected (reduces bandwidth)
 parallel 3D FFT for charge:
    minimum data exchange during FFTs selected (reduces bandwidth)

 Broyden mixing: mesh for mixing (old mesh)
   NGX = 17   NGY = 17   NGZ = 11
  (NGX  = 56   NGY  = 56   NGZ  = 32)
  gives a total of   3179 points

 initial charge density was supplied:
 charge density of overlapping atoms calculated
 number of electron      38.0000000 magnetization       0.0000000
 keeping initial charge density in first step

 Maximum index for augmentation-charges          463 (set IRDMAX)

 First call to EWALD:  gamma=   0.463
 Maximum number of real-space cells 2x 2x 3
 Maximum number of reciprocal cells 3x 3x 2

 FEWALD executed in parallel

----------------------------------------- Iteration    1(   1)  ---------------------------------------

 eigenvalue-minimisations  :  4824
 total energy-change (2. order) : 0.4556895E+03  (-0.1856486E+04)
 number of electron      38.0000000 magnetization      -0.0000000
 augmentation part       38.0000000 magnetization      -0.0000000

 Free energy of the ion-electron system (eV)
  alpha Z        PSCENC =       169.68454504
  Ewald energy   TEWEN  =     -2219.86739494
  -1/2 Hartree   DENC   =      -552.56175704
  -exchange  EXHF       =         0.00000000
  -V(xc)+E(xc)   XCENC  =        93.23554476
  PAW double counting   =      2192.87916522    -2169.73980493
  entropy T*S    EENTRO =        -0.00643980
  eigenvalues    EBANDS =       386.78039767
  atomic energy  EATOM  =      2555.28521479
  free energy    TOTEN  =       455.68947076 eV

  energy without entropy =      455.69591056  energy(sigma->0) =      455.69161736

[...]

 eigenvalue-minimisations  :  4864
 total energy-change (2. order) :-0.4277838E+03  (-0.4164075E+03)
 number of electron      38.0000000 magnetization      -0.0000000
 augmentation part       38.0000000 magnetization      -0.0000000

[...]

 Broyden mixing:
  rms(total) = 0.39605E+01    rms(broyden)= 0.39603E+01
  rms(prec ) = 0.67384E+01
  weight for this iteration     100.00

[...]

 eigenvalues of (default mixing * dielectric matrix)
  average eigenvalue GAMMA=   0.2552
  0.2552

[...]

 Broyden mixing:
  rms(total) = 0.17379E-01    rms(broyden)= 0.17378E-01
  rms(prec ) = 0.19055E-01
  weight for this iteration     100.00

[...]

 Free energy of the ion-electron system (eV)
  alpha Z        PSCENC =       169.68454504
  Ewald energy   TEWEN  =     -2219.86739494
  -1/2 Hartree   DENC   =      -556.64279496
  -exchange  EXHF       =         0.00000000
  -V(xc)+E(xc)   XCENC  =        94.74418904
  PAW double counting   =      3254.83373222    -3234.77124130
  entropy T*S    EENTRO =         0.00416878
  eigenvalues    EBANDS =      -113.60308335
  atomic energy  EATOM  =      2555.28521479
  free energy    TOTEN  =       -50.33266469 eV

  energy without entropy =      -50.33683347  energy(sigma->0) =      -50.33405428

 average (electrostatic) potential at core
  the test charge radii are     0.7215  1.0210
  (the norm of the test charge is              1.0000)
       1 -71.4880       2 -71.4880       3 -71.4880       4 -71.4880       5 -46.8633
       6 -46.8633

 E-fermi :   3.7885     XC(G=0): -12.0723     alpha+bet :-11.3739

 spin component 1

 k-point   1 :       0.0000    0.0000    0.0000
  band No.  band energies     occupation
      1     -16.0287      1.00000
      2     -14.1688      1.00000
      3     -13.8498      1.00000
      4     -13.7548      1.00000
      5      -3.9825      1.00000
      6      -3.1425      1.00000
      7      -2.5000      1.00000
      8      -1.9458      1.00000
      9      -1.3957      1.00000
     10      -0.2132      1.00000
     11      -0.1375      1.00000
     12       0.3742      1.00000
     13       1.5836      1.00000
     14       1.6459      1.00000
     15       2.1729      1.00000
     16       2.2685      1.00000
     17       2.6878      1.00000
     18       2.7408      1.00000
     19       3.3821      1.00720
     20       3.4598      1.02107
     21       4.0761     -0.03030
     22       4.8765     -0.00000
     23       5.7018     -0.00000
     24       6.8355     -0.00000

[...]

 soft charge-density along one line, spin component           1
         0         1         2         3         4         5         6         7         8         9
 total charge-density along one line

[...]

------------------------ aborting loop because EDIFF is reached ----------------------------------------

  FORCE on cell =-STRESS in cart. coord.  units (eV):
  Direction    XX          YY          ZZ          XY          YZ          ZX
  Alpha Z   169.68455   169.68455   169.68455
  Ewald    -826.79628  -826.79628  -566.27711     0.00000     0.00000     0.00000
  Hartree   148.91004   148.91004   258.91685    -0.00000    -0.00000    -0.00000
  E(xc)    -184.00506  -184.00506  -184.30319     0.00000    -0.00000    -0.00000
  Local      72.64155    72.64155  -278.66636     0.00000     0.00000    -0.00000
  n-local  -134.10702  -133.90804  -129.57095     0.24728    -0.33120     0.08638
  augment    87.71680    87.71680    84.91301    -0.00000    -0.00000    -0.00000
  Kinetic   664.36656   662.58288   642.51501    -1.44445     0.04125    -0.89268
  Fock        0.00000     0.00000     0.00000     0.00000     0.00000     0.00000
  Total      -2.38122    -2.38122    -2.78819     0.00000     0.00000     0.00000
  in kB     -68.04292   -68.04292   -79.67228     0.00000     0.00000     0.00000

 VOLUME and BASIS-vectors are now :
  energy-cutoff  :      520.00
  volume of cell :       56.07
      direct lattice vectors                 reciprocal lattice vectors
     4.420000000  0.000000000  0.000000000     0.226244344  0.000000000  0.000000000
     0.000000000  4.420000000  0.000000000     0.000000000  0.226244344  0.000000000
     0.000000000  0.000000000  2.870000000     0.000000000  0.000000000  0.348432056

[...]

 FORCES acting on ions
    electron-ion (+dipol)            ewald-force                    non-local-force                 convergence-correction
   0.280E+02 0.280E+02 0.542E-05   -.312E+02 -.312E+02 -.231E-14   0.318E+01 0.318E+01 -.157E-17   0.412E-02 0.412E-02 -.488E-13
   0.280E+02 -.280E+02 -.410E-11   -.312E+02 0.312E+02 -.352E-14   0.318E+01 -.318E+01 -.312E-17   0.412E-02 -.412E-02 -.200E-13
   -.280E+02 0.280E+02 -.156E-11   0.312E+02 -.312E+02 -.406E-14   -.318E+01 0.318E+01 0.615E-18   -.412E-02 0.412E-02 0.874E-14
   -.280E+02 -.280E+02 -.542E-05   0.312E+02 0.312E+02 -.584E-14   -.318E+01 -.318E+01 -.570E-19   -.412E-02 -.412E-02 -.125E-13
   -.326E-14 0.913E-14 0.359E-13   -.312E-13 0.533E-13 0.542E-14   -.665E-22 -.374E-22 0.410E-22   -.133E-13 -.145E-14 -.438E-14
   0.524E-12 0.109E-11 0.256E-12   0.597E-13 0.345E-14 0.559E-14   0.127E-21 -.314E-22 -.760E-22   -.142E-13 -.677E-13 -.296E-15
   -.820E-12 0.318E-11 -.337E-12   0.522E-16 -.125E-15 -.473E-14   0.444E-15 -.688E-22 -.414E-17   -.119E-12 -.143E-12 -.773E-13

 POSITION                                       TOTAL-FORCE (eV/Angst)
      1.34713      1.34713      0.00000        -0.042051     -0.042051     -0.000000
      3.55713      0.86287      1.43500        -0.042051      0.042051     -0.000000
      0.86287      3.55713      1.43500         0.042051     -0.042051     -0.000000
      3.07287      3.07287      0.00000         0.042051      0.042051     -0.000000
      0.00000      0.00000      0.00000         0.000000     -0.000000      0.000000
      2.21000      2.21000      1.43500        -0.000000     -0.000000      0.000000
    total drift:                               -0.000000      0.000000     -0.000000

  FREE ENERGIE OF THE ION-ELECTRON SYSTEM (eV)
  free  energy   TOTEN  =       -50.33266469 eV

  energy  without entropy=      -50.33683347  energy(sigma->0) =      -50.33405428

[...]

  free energy =  -0.510007585896E+02  energy without entropy=  -0.510042051540E+02

[...]

 d Force = 0.2383270E-02[ 0.410E-02, 0.669E-03]  d Energy =-0.1620573E-01 0.186E-01
 d Force = 0.5058401E+00[ 0.515E+00, 0.497E+00]  d Ewald  = 0.4578034E+02-0.453E+02

 Steepest descent step on ions:
 trial-energy change:    0.016206  1 .order    0.013968   -0.154371    0.182307
  (g-gl).g = 0.154E+00      g.g   = 0.154E+00  gl.gl    = 0.000E+00
 g(Force)  = 0.682E-03   g(Stress)= 0.154E+00 ortho     = 0.000E+00
 gamma     =   0.00000
 trial     =   1.00000
 opt step  =   0.44865  (harmonic =   0.45851) maximal distance =0.00091014
 next E    =   -50.367092   (d E  =  -0.03443)

[...]

 d Force =-0.1769824E-02[-0.121E-02,-0.233E-02]  d Energy = 0.5088055E-01-0.527E-01
 d Force =-0.2897066E+00[-0.287E+00,-0.293E+00]  d Ewald  =-0.2547605E+02 0.252E+02

[...]

 eigenvalues of (default mixing * dielectric matrix)
  average eigenvalue GAMMA=   0.7493
  0.9299  0.5686

[...]

 d Force = 0.2671834E-02[-0.946E-03, 0.629E-02]  d Energy = 0.2630985E-02 0.408E-04
 d Force = 0.1433295E+01[ 0.138E+01, 0.149E+01]  d Ewald  = 0.2989018E+01-0.156E+01

 Conjugate gradient step on ions:
 trial-energy change:   -0.002631  1 .order   -0.002779   -0.006235    0.000677
  (g-gl).g = 0.105E-01      g.g   = 0.723E-02  gl.gl    = 0.154E+00
 g(Force)  = 0.693E-02   g(Stress)= 0.301E-03 ortho     =-0.326E-02
 gamma     =   0.06795
 trial     =   0.88973
 opt step  =   0.80255  (harmonic =   0.80255) maximal distance =0.00529811
 next E    =   -50.370152   (d E  =  -0.00281)

 FEWALD executed in parallel

[...]

 eigenvalue-minimisations  :  4912
 total energy-change (2. order) : 0.9995763E-04  (-0.1728884E-02)
 number of electron      38.0000161 magnetization       0.0000000
 augmentation part        8.7115883 magnetization       0.0000000

[...]

----------------------------------------- Iteration    5(   2)  ---------------------------------------

 eigenvalue-minimisations  :  4696
 total energy-change (2. order) :-0.5663992E-04  (-0.7490462E-04)
 number of electron      38.0000161 magnetization       0.0000000
 augmentation part        8.7115883 magnetization       0.0000000

  free energy =  -0.503700210093E+02  energy without entropy=  -0.503743959136E+02

 average (electrostatic) potential at core
  the test charge radii are     0.7215  1.0210
  (the norm of the test charge is              1.0000)
       1 -71.2334       2 -71.2334       3 -71.2334       4 -71.2334       5 -46.5393
       6 -46.5393

 E-fermi :   4.1365     XC(G=0): -12.2368     alpha+bet :-11.7092

[...]

 spin component 2

[...]

 k-point  50 :       0.5000    0.5000    0.4444
  band No.  band energies     occupation
      1     -14.0922      1.00000
      2     -14.0049      1.00000
      3     -13.9771      1.00000
      4     -13.8614      1.00000
      5      -2.7236      1.00000
      6      -2.6763      1.00000
      7      -2.6555      1.00000
      8      -2.3110      1.00000
      9      -1.4436      1.00000
     10      -0.8842      1.00000
     11      -0.5293      1.00000
     12      -0.0574      1.00000
     13       0.9012      1.00000
     14       1.8059      1.00000
     15       2.0436      1.00000
     16       2.3217      1.00000
     17       2.4864      1.00000
     18       3.4588      1.00001
     19       3.5043      1.00004
     20       5.0724     -0.00000
     21       5.1759     -0.00000
     22       5.5139     -0.00000
     23       6.0483     -0.00000
     24       6.3502     -0.00000

[...]

 soft charge-density along one line, spin component           2
         0         1         2         3         4         5         6         7         8         9
 total charge-density along one line

------------------------ aborting loop because EDIFF is reached ----------------------------------------

  FORCE on cell =-STRESS in cart. coord.  units (eV):
  Direction    XX          YY          ZZ          XY          YZ          ZX
  Alpha Z   174.68625   174.68625   174.68625
  Ewald    -830.66329  -830.66329  -581.54861     0.00000     0.00000     0.00000
  Hartree   147.28753   147.28753   252.46477    -0.00000    -0.00000    -0.00000
  E(xc)    -184.57293  -184.57293  -184.82054    -0.00000     0.00000     0.00000
  Local      73.63476    73.63476  -262.00827     0.00000    -0.00000     0.00000
  n-local  -133.31144  -133.09227  -129.17216     0.23653    -0.33769     0.08908
  augment    87.62363    87.62363    84.93057    -0.00000    -0.00000     0.00000
  Kinetic   666.26472   664.33725   645.27343    -1.47038    -0.05568    -0.96147
  Fock        0.00000     0.00000     0.00000     0.00000     0.00000     0.00000
  Total       0.09508     0.09508    -0.19455     0.00000     0.00000     0.00000
  in kB       2.79686     2.79686    -5.72318     0.00000     0.00000     0.00000

 VOLUME and BASIS-vectors are now :
  energy-cutoff  :      520.00
  volume of cell :       54.46
      direct lattice vectors                 reciprocal lattice vectors
     4.378352048 -0.000000000  0.000000000     0.228396435 -0.000000000  0.000000000
     0.000000000  4.378352048  0.000000000     0.000000000  0.228396435  0.000000000
     0.000000000  0.000000000  2.841113926     0.000000000  0.000000000  0.351974622

  length of vectors
     4.378352048  4.378352048  2.841113926     0.228396435  0.228396435  0.351974622

 FORCES acting on ions
    electron-ion (+dipol)            ewald-force                    non-local-force                 convergence-correction
   0.265E+02 0.265E+02 -.866E-06   -.296E+02 -.296E+02 -.623E-14   0.311E+01 0.311E+01 -.465E-17   -.324E-01 -.324E-01 -.342E-12
   0.265E+02 -.265E+02 0.824E-11   -.296E+02 0.296E+02 -.738E-14   0.311E+01 -.311E+01 -.491E-17   -.324E-01 0.324E-01 -.144E-11
   -.265E+02 0.265E+02 0.915E-12   0.296E+02 -.296E+02 -.769E-14   -.311E+01 0.311E+01 -.910E-17   0.324E-01 -.324E-01 -.893E-13
   -.265E+02 -.265E+02 0.866E-06   0.296E+02 0.296E+02 -.947E-14   -.311E+01 -.311E+01 0.706E-17   0.324E-01 0.324E-01 -.333E-12
   0.234E-13 0.148E-13 0.317E-13   -.448E-13 0.117E-13 0.115E-13   -.320E-22 0.424E-22 0.303E-23   0.264E-13 0.105E-12 0.393E-12
   0.531E-12 0.111E-11 0.260E-12   -.690E-13 -.827E-13 0.122E-13   0.150E-22 0.588E-22 -.475E-23   0.891E-13 -.510E-14 0.185E-12
   0.242E-11 0.172E-11 0.622E-11   -.157E-15 0.142E-13 -.710E-14   -.888E-15 0.101E-21 -.116E-16   -.841E-13 -.889E-12 -.163E-11

 POSITION                                       TOTAL-FORCE (eV/Angst)
      1.32826      1.32826      0.00000         0.005705      0.005705      0.000000
      3.51744      0.86091      1.42056         0.005705     -0.005705      0.000000
      0.86091      3.51744      1.42056        -0.005705      0.005705      0.000000
      3.05009      3.05009     -0.00000        -0.005705     -0.005705      0.000000
      0.00000     -0.00000     -0.00000        -0.000000      0.000000     -0.000000
      2.18918      2.18918      1.42056         0.000000      0.000000     -0.000000
    total drift:                                0.000000      0.000000      0.000000

  FREE ENERGIE OF THE ION-ELECTRON SYSTEM (eV)
  free  energy   TOTEN  =       -50.37002101 eV

  energy  without entropy=      -50.37439591  energy(sigma->0) =      -50.37147931

 d Force = 0.5954342E-04[ 0.263E-04, 0.928E-04]  d Energy = 0.5051695E-04 0.903E-05
 d Force =-0.1356696E+00[-0.136E+00,-0.135E+00]  d Ewald  =-0.2878040E+00 0.152E+00

 reached required accuracy - stopping structural energy minimisation