 vasp.5.3.3 18Dez12 (build May 12 2016 12:04:25) complex

 executed on             LinuxIFC date 2017.03.09  13:08:11

 INCAR:
 POTCAR:    PAW_PBE Mn 06Sep2000
 POTCAR:    PAW_PBE O 08Apr2002
 POTCAR:    PAW_PBE Li 17Jan2003
 POTCAR:    PAW_PBE Mn 06Sep2000

 POTCAR:    PAW_PBE O 08Apr2002

 POTCAR:    PAW_PBE Li 17Jan2003

  PAW_PBE Mn 06Sep2000                  :
  PAW_PBE O 08Apr2002                   :
  PAW_PBE Li 17Jan2003                  :

 POSCAR:
  positions in direct lattice
  velocities in cartesian coordinates
 exchange correlation table for  LEXCH =        8
   RHO(1)=    0.500       N(1)  =     2000
   RHO(2)=  100.500       N(2)  =     4000

 ion  position               nearest neighbor table
   1  0.250  0.151  0.659-  13 1.91  24 1.91  24 1.91  34 1.95  34 1.95  30 2.04  37 2.71  40 2.84
                            40 2.84   9 3.15   9 3.15
   2  0.250  0.119  0.322-  22 1.88  22 1.88  14 1.91  28 1.97  35 1.99  35 1.99  38 2.75   7 2.98
                             7 2.98  41 3.03  41 3.03  37 3.17
   3  0.250  0.116  0.990-  36 1.90  36 1.90  23 1.95  23 1.95  15 1.96  29 2.00  38 2.76   8 3.12
                             8 3.12
   4  0.250  0.661  0.512-  31 1.92  31 1.92  19 1.98  19 1.98  16 2.12  39 2.66
   5  0.250  0.621  0.176-  20 1.92  20 1.92  32 1.98  32 1.98  17 2.33  26 2.34  39 2.55  42 2.88
                            42 2.88
   6  0.250  0.635  0.843-  33 1.91  33 1.91  21 1.93  21 1.93  18 1.95  27 2.06  43 2.91  43 2.91
                            12 3.16  12 3.16
   7  0.750  0.860  0.339-  17 1.91  17 1.91  19 1.93  28 1.96  28 1.96  35 2.00   2 2.98   2 2.98
                            39 2.99  39 2.99
   8  0.750  0.842  0.992-  18 1.94  18 1.94  29 1.98  29 1.98  20 2.22  36 2.26   3 3.12   3 3.12
                            42 3.18
   9  0.750  0.872  0.671-  16 1.92  16 1.92  30 2.00  30 2.00  21 2.20  34 2.31  40 2.73  37 2.92
                            37 2.92   1 3.15   1 3.15
  10  0.750  0.373  0.507-  13 1.92  13 1.92  25 1.96  25 1.96  31 2.24  41 2.65
  11  0.750  0.325  0.153-  26 1.93  26 1.93  14 1.96  14 1.96  23 2.13  42 2.69  41 2.81
  12  0.750  0.357  0.842-  15 1.92  15 1.92  27 2.00  27 2.00  33 2.27  24 2.35  43 2.78   6 3.16
                             6 3.16
  13  0.250  0.307  0.580-   1 1.91  10 1.92  10 1.92
  14  0.250  0.263  0.233-   2 1.91  11 1.96  11 1.96  41 2.45  41 2.45
  15  0.250  0.278  0.910-  12 1.92  12 1.92   3 1.96
  16  0.250  0.822  0.596-   9 1.92   9 1.92  37 2.03   4 2.12
  17  0.250  0.786  0.277-   7 1.91   7 1.91  39 2.08   5 2.33
  18  0.250  0.783  0.919-   8 1.94   8 1.94   6 1.95
  19  0.750  0.713  0.427-   7 1.93   4 1.98   4 1.98  39 2.27  39 2.27
  20  0.750  0.681  0.100-   5 1.92   5 1.92  42 1.96   8 2.22
  21  0.750  0.698  0.767-   6 1.93   6 1.93  43 2.03   9 2.20
  22  0.750  0.192  0.382-   2 1.88   2 1.88  41 2.01
  23  0.750  0.167  0.066-   3 1.95   3 1.95  11 2.13  38 2.54  38 2.54
  24  0.750  0.205  0.731-   1 1.91   1 1.91  40 1.97  12 2.35
  25  0.250  0.436  0.428-  10 1.96  10 1.96  39 2.01  41 2.15  41 2.15
  26  0.250  0.427  0.099-  11 1.93  11 1.93  42 2.03  42 2.03   5 2.34
  27  0.250  0.461  0.779-  12 2.00  12 2.00  43 2.04  43 2.04   6 2.06
  28  0.250  0.953  0.397-  37 1.92   7 1.96   7 1.96   2 1.97
  29  0.250  0.935  0.052-  38 1.85   8 1.98   8 1.98   3 2.00
  30  0.250  0.972  0.729-  40 2.00  40 2.00   9 2.00   9 2.00   1 2.04
  31  0.750  0.567  0.571-  43 1.88   4 1.92   4 1.92  10 2.24
  32  0.750  0.543  0.251-  41 1.97   5 1.98   5 1.98  39 2.12  39 2.12
  33  0.750  0.552  0.908-  42 1.82   6 1.91   6 1.91  12 2.27
  34  0.750  0.076  0.591-   1 1.95   1 1.95  37 2.02  37 2.02   9 2.31
  35  0.750  0.026  0.260-   2 1.99   2 1.99   7 2.00  38 2.09  38 2.09
  36  0.750  0.049  0.925-  40 1.81   3 1.90   3 1.90   8 2.26
  37  0.250  0.995  0.519-  28 1.92  34 2.02  34 2.02  16 2.03   1 2.71   9 2.92   9 2.92   2 3.17

  38  0.250  0.007  0.162-  29 1.85  35 2.09  35 2.09  23 2.54  23 2.54   2 2.75   3 2.76
  39  0.250  0.600  0.344-  25 2.01  17 2.08  32 2.12  32 2.12  19 2.27  19 2.27   5 2.55  41 2.65
                            41 2.65   4 2.66   7 2.99   7 2.99
  40  0.750  0.038  0.806-  36 1.81  24 1.97  30 2.00  30 2.00   9 2.73   1 2.84   1 2.84
  41  0.750  0.381  0.332-  32 1.97  22 2.01  25 2.15  25 2.15  14 2.45  14 2.45  39 2.65  39 2.65
                            10 2.65  11 2.81   2 3.03   2 3.03
  42  0.750  0.527  0.028-  33 1.82  20 1.96  26 2.03  26 2.03  11 2.69   5 2.88   5 2.88   8 3.18

  43  0.750  0.536  0.695-  31 1.88  21 2.03  27 2.04  27 2.04  12 2.78   6 2.91   6 2.91

  LATTYP: Found a simple monoclinic cell.
 ALAT       =    18.7447297150
 B/A-ratio  =     0.1544160424
 C/A-ratio  =     1.3869059749
 COS(beta)  =    -0.9498265739

  Lattice vectors:

 A1 = ( -10.5720481508,   0.0000000000,  15.4789111369)
 A2 = (   0.0000000000,  -2.8944869791,   0.0000000000)
 A3 = (  20.6414053223,   0.0000000000, -15.8046079205)

Analysis of symmetry for initial positions (statically):
 Subroutine PRICEL returns:
 Original cell was already a primitive cell.

 Routine SETGRP: Setting up the symmetry group for a
 simple monoclinic supercell.

 Subroutine GETGRP returns: Found  2 space group operations
 (whereof  1 operations were pure point group operations)
 out of a pool of  4 trial point group operations.

The static configuration has the point symmetry C_1 .
 The point group associated with its full space group is C_1h.

Analysis of symmetry for dynamics (positions and initial velocities):
 Subroutine PRICEL returns:
 Original cell was already a primitive cell.

 Routine SETGRP: Setting up the symmetry group for a
 simple monoclinic supercell.

 Subroutine GETGRP returns: Found  2 space group operations
 (whereof  1 operations were pure point group operations)
 out of a pool of  4 trial point group operations.

The dynamic configuration has the point symmetry C_1 .
 The point group associated with its full space group is C_1h.

Analysis of magnetic symmetry:

 Subroutine MAGSYM returns: Found  2 space group operations
 (whereof  1 operations were pure point group operations)
 out of a pool of  2 trial space group operations
 (whereof  1 operations were pure point group operations)
 and found also     1 'primitive' translations

The magnetic configuration has the point symmetry C_1 .
 The point group associated with its full space group is C_1h.

 irot  :   1
 isymop:   1   0   0
           0   1   0
           0   0   1

 gtrans:     0.0000000     0.0000000     0.0000000

 ptrans:     0.0000000     0.0000000     0.0000000
 rotmap:
 (   1->   1)  (   2->   2)  (   3->   3)  (   4->   4)  (   5->   5)
 (   6->   6)  (   7->   7)  (   8->   8)  (   9->   9)  (  10->  10)
 (  11->  11)  (  12->  12)  (  13->  13)  (  14->  14)  (  15->  15)
 (  16->  16)  (  17->  17)  (  18->  18)  (  19->  19)  (  20->  20)
 (  21->  21)  (  22->  22)  (  23->  23)  (  24->  24)  (  25->  25)
 (  26->  26)  (  27->  27)  (  28->  28)  (  29->  29)  (  30->  30)
 (  31->  31)  (  32->  32)  (  33->  33)  (  34->  34)  (  35->  35)
 (  36->  36)  (  37->  37)  (  38->  38)  (  39->  39)  (  40->  40)
 (  41->  41)  (  42->  42)  (  43->  43)

 irot  :   2
 isymop:  -1   0   0
           0   1   0
           0   0   1

 gtrans:    -0.5000000     0.0000000     0.0000000

 ptrans:     0.0000000     0.0000000     0.0000000
 rotmap:
 (   1->   1)  (   2->   2)  (   3->   3)  (   4->   4)  (   5->   5)
 (   6->   6)  (   7->   7)  (   8->   8)  (   9->   9)  (  10->  10)
 (  11->  11)  (  12->  12)  (  13->  13)  (  14->  14)  (  15->  15)
 (  16->  16)  (  17->  17)  (  18->  18)  (  19->  19)  (  20->  20)
 (  21->  21)  (  22->  22)  (  23->  23)  (  24->  24)  (  25->  25)
 (  26->  26)  (  27->  27)  (  28->  28)  (  29->  29)  (  30->  30)
 (  31->  31)  (  32->  32)  (  33->  33)  (  34->  34)  (  35->  35)
 (  36->  36)  (  37->  37)  (  38->  38)  (  39->  39)  (  40->  40)
 (  41->  41)  (  42->  42)  (  43->  43)

 KPOINTS: Automatic mesh

Automatic generation of k-mesh.
Space group operators:
 irot       det(A)        alpha          n_x          n_y          n_z        tau_x        tau_y        tau_z
    1     1.000000     0.000000     1.000000     0.000000     0.000000     0.000000     0.000000     0.000000
    2    -1.000000   180.000000     0.000000     1.000000     0.000000    -0.500000     0.000000     0.000000

 Subroutine IBZKPT returns following result:

 Found     24 irreducible k-points:

 Following reciprocal coordinates:
            Coordinates               Weight
  0.000000  0.000000  0.000000      1.000000
  0.100000  0.000000  0.000000      2.000000
  0.200000  0.000000  0.000000      2.000000
  0.300000  0.000000  0.000000      2.000000
  0.400000  0.000000  0.000000      2.000000
  0.500000  0.000000  0.000000      1.000000
  0.000000  0.333333 -0.000000      2.000000
  0.100000  0.333333 -0.000000      4.000000
  0.200000  0.333333 -0.000000      4.000000
  0.300000  0.333333 -0.000000      4.000000
  0.400000  0.333333 -0.000000      4.000000
  0.500000  0.333333 -0.000000      2.000000
  0.000000 -0.000000  0.500000      1.000000
  0.100000 -0.000000  0.500000      2.000000
  0.200000 -0.000000  0.500000      2.000000
  0.300000 -0.000000  0.500000      2.000000
  0.400000 -0.000000  0.500000      2.000000
  0.500000 -0.000000  0.500000      1.000000
  0.000000  0.333333  0.500000      2.000000
  0.100000  0.333333  0.500000      4.000000
  0.200000  0.333333  0.500000      4.000000
  0.300000  0.333333  0.500000      4.000000
  0.400000  0.333333  0.500000      4.000000
  0.500000  0.333333  0.500000      2.000000

 Following cartesian coordinates:
            Coordinates               Weight
  0.000000  0.000000  0.000000      1.000000
  0.000000  0.034548  0.000000      2.000000
  0.000000  0.069097  0.000000      2.000000
  0.000000  0.103645  0.000000      2.000000
  0.000000  0.138194  0.000000      2.000000
  0.000000  0.172742  0.000000      1.000000
  0.033139  0.000000  0.001099      2.000000
  0.033139  0.034548  0.001099      4.000000
  0.033139  0.069097  0.001099      4.000000
  0.033139  0.103645  0.001099      4.000000
  0.033139  0.138194  0.001099      4.000000
  0.033139  0.172742  0.001099      2.000000
 -0.001068  0.000000 -0.033032      1.000000
 -0.001068  0.034548 -0.033032      2.000000
 -0.001068  0.069097 -0.033032      2.000000
 -0.001068  0.103645 -0.033032      2.000000
 -0.001068  0.138194 -0.033032      2.000000
 -0.001068  0.172742 -0.033032      1.000000
  0.032071  0.000000 -0.031932      2.000000
  0.032071  0.034548 -0.031932      4.000000
  0.032071  0.069097 -0.031932      4.000000
  0.032071  0.103645 -0.031932      4.000000
  0.032071  0.138194 -0.031932      4.000000
  0.032071  0.172742 -0.031932      2.000000

 TETIRR: Found    180 inequivalent tetrahedra from      360

 I would recommend the setting:
   dimension x,y,z NGX =    16 NGY =   56 NGZ =   85
 SYSTEM =  unknown system
 POSCAR =

 Startparameter for this run:
   NWRITE =      1    write-flag & timer
   PREC   = normal    normal or accurate (medium, high low for compatibility)
[...]
     47      -2.0626      1.00000
     48      -2.0110      1.00000
     49      -1.9725      1.00000
     50      -1.8926      1.00000
     51      -1.8362      1.00000
     52      -1.8267      1.00000
     53      -1.7762      1.00000
     54      -1.6458      1.00000
     55      -1.5921      1.00000
     56      -1.5613      1.00000
     57      -1.5484      1.00000
     58      -1.4556      1.00000
     59      -1.4516      1.00000
     60      -1.4215      1.00000
[...]
    130       5.4950      0.00000
    131       5.6755      0.00000
    132       5.8111      0.00000
    133       5.8335      0.00000
    134       5.8993      0.00000
    135       5.9314      0.00000
    136       6.0194      0.00000
    137       6.1517      0.00000
    138       6.3351      0.00000
    139       6.3552      0.00000
    140       6.4244      0.00000
    141       6.4461      0.00000
    142       6.5221      0.00000
    143       6.5554      0.00000
    144       6.6098      0.00000

 soft charge-density along one line, spin component           1
         0         1         2         3         4         5         6         7         8         9
 total charge-density along one line

 soft charge-density along one line, spin component           2
         0         1         2         3         4         5         6         7         8         9
 total charge-density along one line

------------------------ aborting loop because EDIFF is reached ----------------------------------------

 total charge

# of ion     s       p       d       tot
  1        0.340   0.525   4.778   5.643
  2        0.348   0.532   4.817   5.696
  3        0.339   0.526   4.772   5.637
  4        0.300   0.407   4.818   5.524
  5        0.300   0.409   4.807   5.516
  6        0.338   0.520   4.770   5.628
  7        0.342   0.523   4.806   5.671
  8        0.291   0.397   4.798   5.486
  9        0.293   0.401   4.811   5.504
 10        0.301   0.408   4.806   5.515
 11        0.300   0.409   4.812   5.522
 12        0.290   0.392   4.801   5.483
 13        1.562   3.468   0.000   5.030
 14        1.560   3.469   0.000   5.029
 15        1.561   3.461   0.000   5.023
 16        1.560   3.482   0.000   5.042
 17        1.576   3.412   0.000   4.988
 18        1.564   3.453   0.000   5.016
 19        1.558   3.466   0.000   5.024
 20        1.559   3.465   0.000   5.025
 21        1.562   3.442   0.000   5.004
 22        1.577   3.405   0.000   4.982
 23        1.565   3.425   0.000   4.989
 24        1.566   3.429   0.000   4.995
 25        1.556   3.461   0.000   5.017
 26        1.562   3.469   0.000   5.031
 27        1.562   3.455   0.000   5.017
 28        1.569   3.459   0.000   5.029
 29        1.565   3.465   0.000   5.030
 30        1.561   3.459   0.000   5.020
 31        1.565   3.478   0.000   5.043
 32        1.555   3.461   0.000   5.015
 33        1.570   3.465   0.000   5.035
 34        1.564   3.453   0.000   5.017
 35        1.566   3.448   0.000   5.014
 36        1.570   3.469   0.000   5.039
 37        0.097   0.200   0.000   0.297
 38        0.086   0.172   0.000   0.258
 39        0.095   0.199   0.000   0.295
 40        0.117   0.245   0.000   0.361
 41        0.094   0.191   0.000   0.285
 42        0.115   0.240   0.000   0.354
 43        0.101   0.206   0.000   0.307
tot       42.021  89.819  57.596 189.437

 magnetization (x)

[...]

  FORCE on cell =-STRESS in cart. coord.  units (eV):
  Direction    XX          YY          ZZ          XY          YZ          ZX
  Alpha Z   809.95663   809.95663   809.95663
  Ewald   -4151.70031 -2008.95637 -5530.35352     0.00000    -0.00000   396.51044
  Hartree  1610.67919  2738.70642   398.79884    -0.00000     0.00000   222.62742
  E(xc)   -1145.28513 -1146.45392 -1146.69813     0.00000    -0.00000     0.03253
  Local    -886.31044 -4043.04591  1726.67775     0.00000     0.00000  -604.48114
  n-local  -801.54233  -764.07326  -790.04834     0.04395     0.00561     6.38430
  augment   540.47980   521.71584   535.92088    -0.00000     0.00000    -3.66981
  Kinetic  4020.12875  3888.78550  3993.08801    -0.06467    -0.00514   -17.59590
  Fock        0.00000     0.00000     0.00000     0.00000     0.00000     0.00000
  Total      -3.59383    -3.36506    -2.65787     0.00000     0.00000    -0.19215
  in kB     -13.05139   -12.22058    -9.65234     0.00000     0.00000    -0.69783

 VOLUME and BASIS-vectors are now :
  energy-cutoff  :      520.00
  volume of cell :      441.18
      direct lattice vectors                 reciprocal lattice vectors
     0.000000000  2.894486979  0.000000000     0.000000000  0.345484366  0.000000000
    10.069357172  0.000000000 -0.325696784     0.099417883  0.000000000  0.003298077
     0.502690979  0.000000000-15.153214353    -0.002136846  0.000000000 -0.066063487

  length of vectors
     2.894486979 10.074623181 15.161550167     0.345484366  0.099472573  0.066098036

 FORCES acting on ions
    electron-ion (+dipol)            ewald-force                    non-local-force                 convergence-correction
   -.526E+02 -.561E-14 -.157E+01   0.540E+02 0.102E-13 0.182E+01   -.124E+01 -.864E-20 -.135E+00   -.129E+00 0.626E-12 -.913E-01
   -.722E+02 0.117E-13 0.333E+02   0.735E+02 0.287E-13 -.344E+02   -.138E+01 0.284E-18 0.783E+00   -.321E-01 0.413E-13 0.299E+00
   -.559E+02 0.785E-14 0.184E+02   0.562E+02 -.472E-14 -.176E+02   -.970E-01 -.208E-19 -.542E+00   -.312E+00 0.456E-13 -.236E+00
   -.259E+01 0.127E-13 0.279E+02   0.179E+01 -.269E-13 -.307E+02   0.591E+00 -.961E-20 0.215E+01   0.204E+00 -.133E-13 0.523E+00
   -.336E+02 0.640E-14 0.133E+02   0.330E+02 0.193E-13 -.122E+02   0.409E+00 -.123E-19 -.106E+01   0.188E+00 0.350E-12 0.214E-01
   -.359E+02 0.286E-14 -.201E+02   0.362E+02 0.479E-13 0.195E+02   -.580E+00 0.164E-19 0.414E+00   0.264E+00 -.721E-13 0.894E-01
   0.607E+02 0.526E-13 -.133E+02   -.617E+02 0.227E-14 0.134E+02   0.114E+01 0.214E-18 -.972E-01   -.740E-01 -.133E-13 0.141E+00
   0.755E+02 0.355E-13 0.388E+02   -.751E+02 0.345E-14 -.385E+02   -.752E+00 -.671E-19 -.242E+00   0.319E+00 -.539E-14 -.124E+00
   0.834E+02 0.578E-13 0.259E+02   -.841E+02 -.496E-13 -.237E+02   0.123E+00 -.238E-19 -.143E+01   0.575E+00 -.170E-12 -.724E+00
   0.335E+02 0.461E-13 -.396E+02   -.319E+02 0.975E-15 0.388E+02   -.121E+01 -.266E-19 0.119E+01   -.398E+00 -.454E-13 -.424E+00
   -.159E+02 0.598E-13 -.134E+02   0.165E+02 -.304E-13 0.150E+02   -.221E+00 0.458E-20 -.150E+01   -.412E+00 -.452E-13 -.127E+00
   0.404E+02 0.572E-13 -.419E+02   -.400E+02 0.819E-14 0.402E+02   -.249E+00 0.276E-19 0.160E+01   -.132E+00 0.270E-12 0.122E+00
   -.548E+02 0.538E-13 0.350E+02   0.592E+02 -.105E-13 -.431E+02   -.436E+01 -.183E-19 0.787E+01   -.143E+00 0.808E-13 0.570E-01
   -.638E+02 0.564E-13 0.418E+02   0.679E+02 0.445E-14 -.464E+02   -.425E+01 0.190E-19 0.380E+01   0.744E-02 0.700E-13 0.655E+00
   -.299E+02 0.790E-13 0.468E+02   0.307E+02 -.271E-13 -.551E+02   -.111E+01 -.218E-19 0.801E+01   0.994E-01 -.505E-12 0.207E+00
   0.364E+02 0.607E-13 -.844E+02   -.408E+02 0.476E-13 0.951E+02   0.371E+01 -.298E-18 -.962E+01   0.536E+00 0.742E-13 -.959E+00
   0.821E+02 0.746E-13 -.148E+03   -.896E+02 -.477E-14 0.161E+03   0.705E+01 -.428E-18 -.136E+02   0.248E+00 0.271E-13 0.962E-01
   -.170E+02 0.646E-13 -.510E+02   0.215E+02 -.448E-15 0.599E+02   -.514E+01 0.377E-19 -.858E+01   0.418E+00 0.565E-14 -.221E+00
   0.634E+02 0.151E-12 -.256E+02   -.680E+02 0.102E-13 0.299E+02   0.482E+01 -.355E-19 -.368E+01   -.758E-01 -.346E-13 -.385E+00
   -.296E+02 0.155E-12 -.599E+02   0.368E+02 -.903E-14 0.705E+02   -.707E+01 0.620E-19 -.971E+01   -.493E-01 -.743E-13 -.713E+00
   -.351E+02 0.155E-12 -.132E+03   0.408E+02 -.197E-13 0.143E+03   -.576E+01 0.187E-18 -.994E+01   0.174E+00 -.813E-11 -.465E+00
   -.122E+03 0.134E-12 0.166E+03   0.131E+03 -.324E-13 -.183E+03   -.881E+01 0.376E-20 0.170E+02   -.364E+00 -.468E-13 0.182E+00
   -.323E+02 0.134E-12 0.114E+03   0.357E+02 0.410E-14 -.124E+03   -.288E+01 0.186E-19 0.929E+01   -.435E+00 -.676E-14 0.215E+00
   -.818E+02 0.151E-12 0.108E+03   0.914E+02 -.924E-14 -.120E+03   -.907E+01 0.942E-20 0.113E+02   -.436E+00 -.137E-13 0.586E+00
   -.217E+02 0.468E-13 -.156E+03   0.273E+02 0.138E-13 0.166E+03   -.528E+01 -.338E-19 -.991E+01   -.260E+00 0.438E-13 -.539E+00
   -.711E+02 0.430E-13 -.141E+03   0.797E+02 -.103E-13 0.151E+03   -.770E+01 -.961E-19 -.992E+01   -.708E+00 0.195E-13 -.482E+00
   0.673E+01 0.428E-13 -.207E+03   -.553E+01 -.188E-13 0.220E+03   -.755E+00 -.104E-18 -.120E+02   -.271E+00 0.101E-13 -.328E+00
   -.335E+02 0.476E-13 0.226E+03   0.342E+02 0.963E-14 -.242E+03   -.189E+00 0.744E-18 0.155E+02   -.234E+00 -.624E-14 0.231E+00
   0.407E+02 0.470E-13 0.206E+03   -.417E+02 0.721E-14 -.219E+03   0.145E+01 0.431E-19 0.127E+02   -.227E+00 -.190E-13 0.391E+00
   0.212E+02 0.595E-13 0.180E+03   -.209E+02 -.247E-14 -.192E+03   0.869E-01 -.108E-18 0.123E+02   -.241E+00 0.302E-13 0.373E+00
   0.583E+02 0.160E-12 0.167E+03   -.675E+02 0.328E-13 -.178E+03   0.860E+01 -.149E-18 0.104E+02   0.484E+00 -.549E-14 0.528E+00
   0.675E+02 0.153E-12 0.143E+03   -.746E+02 -.264E-14 -.152E+03   0.654E+01 0.447E-19 0.790E+01   0.477E+00 -.881E-11 0.676E+00
   0.628E+02 0.158E-12 0.199E+03   -.711E+02 -.115E-13 -.211E+03   0.789E+01 0.125E-18 0.112E+02   0.380E+00 -.200E-12 0.356E+00
   0.356E+02 0.167E-12 -.213E+03   -.398E+02 0.263E-15 0.226E+03   0.375E+01 -.176E-19 -.117E+02   0.380E+00 -.135E-10 -.614E+00
   0.343E+02 0.163E-12 -.220E+03   -.356E+02 0.357E-14 0.235E+03   0.942E+00 -.488E-19 -.144E+02   0.979E-01 -.203E-14 0.174E+00
   0.468E+02 0.168E-12 -.201E+03   -.533E+02 0.312E-13 0.214E+03   0.637E+01 0.153E-19 -.125E+02   0.811E-01 -.107E-13 -.441E+00
   -.551E+01 0.207E-14 -.132E+02   0.499E+01 0.268E-14 0.129E+02   0.494E+00 -.180E-20 0.283E+00   0.291E-01 0.225E-14 -.455E-01
   0.843E+01 0.379E-14 0.532E+00   -.901E+01 0.526E-14 0.334E+00   0.549E+00 0.174E-19 -.943E+00   0.360E-02 0.106E-15 0.373E-01
   0.149E+02 0.340E-14 0.882E+00   -.152E+02 0.448E-15 -.619E+00   0.242E+00 -.572E-20 -.264E+00   0.160E-01 0.170E-14 0.156E-01
   0.760E+01 -.380E-14 0.107E+02   -.700E+01 0.463E-14 -.110E+02   -.636E+00 0.652E-20 0.350E+00   -.140E-01 -.272E-15 0.250E-01
   -.983E+01 -.214E-14 0.429E+00   0.101E+02 -.231E-14 -.729E+00   -.235E+00 0.483E-19 0.233E+00   -.249E-02 -.264E-14 0.204E-01
   0.467E+01 -.134E-14 -.558E+01   -.414E+01 -.474E-14 0.596E+01   -.637E+00 -.230E-21 -.438E+00   0.207E-01 -.162E-15 -.950E-02
   0.680E+01 -.108E-14 -.167E+02   -.626E+01 -.702E-15 0.169E+02   -.566E+00 -.162E-19 -.186E+00   -.683E-02 -.280E-14 -.315E-01
   0.153E+02 0.287E-11 -.799E+00   -.382E-13 0.204E-13 -.320E-13   -.154E+02 0.378E-18 0.174E+01   0.456E-01 -.301E-10 -.937E+00

 POSITION                                       TOTAL-FORCE (eV/Angst)
      1.84745      0.72362    -10.02917        -0.023562      0.000000      0.023283
      1.35954      0.72362     -4.91608        -0.061829     -0.000000     -0.096451
      1.66912      0.72362    -15.03591        -0.084503     -0.000000      0.034680
      6.91468      0.72362     -7.97719        -0.012136     -0.000000     -0.130451
      6.34077      0.72362     -2.86744         0.006209     -0.000000      0.039591
      6.81793      0.72362    -12.98410        -0.059695     -0.000000     -0.035766
      8.82592      2.17087     -5.41918         0.023684     -0.000000      0.071941
      8.97437      2.17087    -15.30932         0.018376     -0.000000      0.008246
      9.11541      2.17087    -10.45007         0.009992     -0.000000     -0.029769
      4.01063      2.17087     -7.80466         0.003763     -0.000000     -0.041207
      3.34936      2.17087     -2.42741         0.002137     -0.000000      0.030278
      4.01346      2.17087    -12.87304         0.021568     -0.000000     -0.033625
      3.37965      0.72362     -8.89329        -0.051940     -0.000000     -0.157975
      2.76204      0.72362     -3.61772        -0.095414     -0.000000     -0.204960
      3.25932      0.72362    -13.88231        -0.216926     -0.000000     -0.103466
      8.57613      0.72362     -9.30154        -0.146380     -0.000000      0.202887
      8.05308      0.72362     -4.45054        -0.151617     -0.000000      0.087532
      8.34667      0.72362    -14.18801        -0.143379     -0.000000      0.098276
      7.39297      2.17087     -6.70666         0.141913     -0.000000      0.224950
      6.90824      2.17087     -1.73493         0.105879     -0.000000      0.161205
      7.41688      2.17087    -11.85274         0.132608      0.000000      0.156291
      2.12463      2.17087     -5.85056         0.148724     -0.000000     -0.060993
      1.71444      2.17087     -1.06195         0.111391     -0.000000     -0.161398
      2.42782      2.17087    -11.13999         0.108995     -0.000000     -0.132023
      4.60764      0.72362     -6.62313         0.041846     -0.000000      0.229405
      4.35432      0.72362     -1.63848         0.203031     -0.000000      0.177439
      5.03328      0.72362    -11.94993         0.174820     -0.000000      0.194572
      9.79242      0.72362     -6.33118         0.271340     -0.000000     -0.165480
      9.44433      0.72362     -1.09237         0.175885     -0.000000     -0.106660
     10.14949      0.72362    -11.36746         0.164517     -0.000000     -0.216196
      5.99353      2.17087     -8.83728        -0.108719     -0.000000     -0.109544
      5.59657      2.17087     -3.98768        -0.080561     -0.000000     -0.253932
      6.01314      2.17087    -13.93681        -0.070845     -0.000000     -0.164301
      1.05898      2.17087     -8.98437        -0.101128      0.000000      0.220017
      0.38860      2.17087     -3.94532        -0.221958     -0.000000      0.192089
      0.95931      2.17087    -14.03107        -0.050049     -0.000000      0.206451
     10.27955      0.72362     -8.19247         0.012677     -0.000000     -0.030486
      0.15248      0.72362     -2.45003        -0.029197     -0.000000     -0.040688
      6.21147      0.72362     -5.41301        -0.032749     -0.000000      0.014010
      0.78443      2.17087    -12.22613        -0.040480     -0.000000      0.011013
      4.00771      2.17087     -5.15450         0.030590     -0.000000     -0.046143
      5.31835      2.17087     -0.59605        -0.088619     -0.000000     -0.064036
      5.75088      2.17087    -10.69973        -0.038259     -0.000000      0.001393
    total drift:                               -0.053432     -0.000000      0.008213

  FREE ENERGIE OF THE ION-ELECTRON SYSTEM (eV)
  free  energy   TOTEN  =      -290.24559142 eV

  energy  without entropy=     -290.24559142  energy(sigma->0) =     -290.24559142

 writing wavefunctions

 total charge

[...]

 magnetization (x)

# of ion     s       p       d       tot
  1        0.023   0.033   3.112   3.168
  2       -0.022  -0.028  -3.140  -3.190
  3        0.021   0.033   3.150   3.205
  4       -0.033  -0.033  -3.795  -3.861
  5        0.041   0.030   3.749   3.820
  6       -0.026  -0.035  -3.195  -3.256
  7        0.022   0.030   3.241   3.293
  8       -0.030  -0.027  -3.806  -3.862
  9        0.032   0.031   3.782   3.845
 10       -0.042  -0.032  -3.772  -3.846
 11        0.035   0.034   3.778   3.847
 12       -0.037  -0.030  -3.804  -3.871
 13        0.001   0.014   0.000   0.015
 14        0.000  -0.019   0.000  -0.019
 15        0.000   0.020   0.000   0.020
 16       -0.007  -0.083   0.000  -0.090
 17        0.007  -0.107   0.000  -0.100
 18        0.002   0.101   0.000   0.103
 19       -0.000   0.005   0.000   0.005
 20       -0.007  -0.079   0.000  -0.086
 21        0.005   0.074   0.000   0.079
 22       -0.003   0.091   0.000   0.087
 23        0.007  -0.026   0.000  -0.019
 24       -0.005  -0.075   0.000  -0.080
 25       -0.001   0.027   0.000   0.026
 26        0.004  -0.017   0.000  -0.013
 27        0.000   0.115   0.000   0.116
 28        0.001  -0.012   0.000  -0.012
 29       -0.001  -0.022   0.000  -0.023
 30       -0.001  -0.113   0.000  -0.114
 31       -0.004   0.019   0.000   0.015
 32        0.001  -0.036   0.000  -0.036
 33       -0.004   0.056   0.000   0.052
 34        0.004  -0.031   0.000  -0.028
 35       -0.000   0.004   0.000   0.003
 36       -0.005  -0.103   0.000  -0.107
 37       -0.000  -0.004   0.000  -0.004
 38        0.001   0.001   0.000   0.002
 39        0.001   0.002   0.000   0.003
 40        0.002  -0.000   0.000   0.002
 41       -0.002  -0.003   0.000  -0.005
 42       -0.001  -0.004   0.000  -0.004
 43       -0.002  -0.001   0.000  -0.004
tot       -0.023  -0.199  -0.701  -0.923

 BZINTS: Fermi energy:  2.801601;235.000000 electrons
         Band energy:-850.358088;  BLOECHL correction:  0.000000