 vasp.5.3.3 18Dez12 (build May 12 2016 12:04:25) complex

 executed on             LinuxIFC date 2017.03.09  13:10:21

 INCAR:
 POTCAR:    PAW_PBE Mn 06Sep2000
 POTCAR:    PAW_PBE O 08Apr2002
 POTCAR:    PAW_PBE Li 17Jan2003
 POTCAR:    PAW_PBE Mn 06Sep2000

 POTCAR:    PAW_PBE O 08Apr2002

 POTCAR:    PAW_PBE Li 17Jan2003

  PAW_PBE Mn 06Sep2000                  :
  PAW_PBE O 08Apr2002                   :
  PAW_PBE Li 17Jan2003                  :

 POSCAR:
  positions in direct lattice
  velocities in cartesian coordinates
 exchange correlation table for  LEXCH =        8
   RHO(1)=    0.500       N(1)  =     2000
   RHO(2)=  100.500       N(2)  =     4000

 ion  position               nearest neighbor table
   1  0.250  0.140  0.649-  24 1.94  24 1.94  34 1.96  34 1.96  13 2.19  37 2.61  38 2.67
   2  0.250  0.156  0.314-  35 1.92  35 1.92  22 1.97  22 1.97  14 2.17  28 2.56  37 2.62  44 2.96
                            44 2.96   7 3.13   7 3.13
   3  0.250  0.100  0.984-  23 1.94  23 1.94  36 1.96  36 1.96  29 2.29  15 2.46  38 2.59  42 2.90
                            42 2.90  45 2.92  45 2.92
   4  0.250  0.636  0.518-  31 1.92  31 1.92  19 1.93  19 1.93  16 1.99  25 2.00  39 2.62  41 3.09
                            41 3.09  10 3.11  10 3.11
   5  0.250  0.639  0.184-  20 1.96  20 1.96  32 1.96  32 1.96  17 2.13  39 2.55  40 2.56
   6  0.250  0.613  0.855-  21 1.91  21 1.91  33 1.94  33 1.94  18 1.96  27 2.01  40 2.65  46 2.87
                            46 2.87  43 3.05  43 3.05  12 3.13  12 3.13
   7  0.750  0.892  0.331-  17 1.92  17 1.92  28 1.98  28 1.98  35 2.17  41 2.56  39 3.01  39 3.01
                             2 3.13   2 3.13
   8  0.750  0.828  0.016-  29 1.93  29 1.93  18 1.97  18 1.97  20 2.16  42 2.77  43 2.78  40 3.04
                            40 3.04
   9  0.750  0.863  0.667-  30 1.93  30 1.93  16 1.94  16 1.94  34 2.38  41 2.67  43 2.67
  10  0.750  0.373  0.499-  13 1.91  13 1.91  25 2.00  25 2.00  22 2.22  31 2.31  44 2.81  37 3.01
                            37 3.01   4 3.11   4 3.11
  11  0.750  0.354  0.154-  14 1.93  14 1.93  26 1.95  26 1.95  23 2.36  45 2.52  44 2.60
  12  0.750  0.350  0.821-  15 1.93  15 1.93  27 2.00  27 2.00  24 2.14  33 2.39  45 2.62  46 2.81
                            38 3.04  38 3.04   6 3.13   6 3.13
  13  0.250  0.287  0.554-  10 1.91  10 1.91  37 2.03   1 2.19
  14  0.250  0.318  0.233-  11 1.93  11 1.93  44 2.14  44 2.14   2 2.17
  15  0.250  0.280  0.888-  12 1.93  12 1.93  38 2.18  45 2.22  45 2.22   3 2.46
  16  0.250  0.798  0.592-   9 1.94   9 1.94   4 1.99  41 2.32  41 2.32
  17  0.250  0.796  0.278-   7 1.92   7 1.92  39 2.00   5 2.13
  18  0.250  0.762  0.938-   6 1.96   8 1.97   8 1.97  43 2.40  43 2.40  40 2.44
  19  0.750  0.701  0.450-   4 1.93   4 1.93  41 2.11  39 2.18  39 2.18
  20  0.750  0.672  0.103-   5 1.96   5 1.96  40 2.14  40 2.14   8 2.16
  21  0.750  0.682  0.791-   6 1.91   6 1.91  46 1.99  43 2.05
  22  0.750  0.231  0.388-   2 1.97   2 1.97  44 2.14  10 2.22  37 2.37  37 2.37
  23  0.750  0.175  0.054-   3 1.94   3 1.94  42 2.04  45 2.07  11 2.36
  24  0.750  0.191  0.728-   1 1.94   1 1.94  12 2.14  38 2.27  38 2.27
  25  0.250  0.474  0.444-   4 2.00  10 2.00  10 2.00  39 2.35  44 2.47  44 2.47
  26  0.250  0.415  0.081-  40 1.91  11 1.95  11 1.95  45 2.11  45 2.11
  27  0.250  0.458  0.773-  12 2.00  12 2.00   6 2.01  46 2.05  46 2.05
  28  0.250  0.961  0.408-  37 1.96   7 1.98   7 1.98  41 2.13  41 2.13   2 2.56
  29  0.250  0.927  0.069-   8 1.93   8 1.93  42 2.07  42 2.07   3 2.29
  30  0.250  0.924  0.742-   9 1.93   9 1.93  38 2.06  43 2.19  43 2.19
  31  0.750  0.564  0.581-  46 1.86   4 1.92   4 1.92  10 2.31
  32  0.750  0.564  0.252-   5 1.96   5 1.96  44 2.03  39 2.20  39 2.20
  33  0.750  0.535  0.918-   6 1.94   6 1.94  40 2.18  40 2.18  45 2.34  12 2.39
  34  0.750  0.050  0.585-   1 1.96   1 1.96  41 2.06  37 2.31  37 2.31   9 2.38
  35  0.750  0.063  0.257-  42 1.85   2 1.92   2 1.92   7 2.17
  36  0.750  0.028  0.911-  43 1.95   3 1.96   3 1.96  38 2.17  38 2.17
  37  0.250  0.120  0.481-  28 1.96  13 2.03  34 2.31  34 2.31  22 2.37  22 2.37   1 2.61   2 2.62
                            41 2.78  41 2.78  10 3.01  10 3.01
  38  0.250  0.093  0.817-  30 2.06  36 2.17  36 2.17  15 2.18  24 2.27  24 2.27   3 2.59   1 2.67
                            43 2.79  43 2.79  12 3.04  12 3.04
  39  0.250  0.642  0.349-  17 2.00  19 2.18  19 2.18  32 2.20  32 2.20  25 2.35   5 2.55   4 2.62
                            44 2.88  44 2.88   7 3.01   7 3.01
  40  0.250  0.571  0.023-  26 1.91  20 2.14  20 2.14  33 2.18  33 2.18  18 2.44   5 2.56   6 2.65
                            45 2.80  45 2.80   8 3.04   8 3.04
  41  0.750  0.895  0.497-  34 2.06  19 2.11  28 2.13  28 2.13  16 2.32  16 2.32   7 2.56   9 2.67
                            37 2.78  37 2.78   4 3.09   4 3.09
  42  0.750  0.031  0.138-  35 1.85  23 2.04  29 2.07  29 2.07   8 2.77   3 2.90   3 2.90
  43  0.750  0.868  0.840-  36 1.95  21 2.05  30 2.19  30 2.19  18 2.40  18 2.40   9 2.67   8 2.78
                            38 2.79  38 2.79   6 3.05   6 3.05
  44  0.750  0.404  0.320-  32 2.03  22 2.14  14 2.14  14 2.14  25 2.47  25 2.47  11 2.60  10 2.81
                            39 2.88  39 2.88   2 2.96   2 2.96
  45  0.750  0.344  0.991-  23 2.07  26 2.11  26 2.11  15 2.22  15 2.22  33 2.34  11 2.52  12 2.62
                            40 2.80  40 2.80   3 2.92   3 2.92
  46  0.750  0.540  0.700-  31 1.86  21 1.99  27 2.05  27 2.05  12 2.81   6 2.87   6 2.87

  LATTYP: Found a simple monoclinic cell.
 ALAT       =    18.2011337194
 B/A-ratio  =     0.1577837109
 C/A-ratio  =     1.3918849064
 COS(beta)  =    -0.9367342043

  Lattice vectors:

 A1 = ( -10.0364967131,   0.0000000000,  15.1838731028)
 A2 = (   0.0000000000,  -2.8718424212,   0.0000000000)
 A3 = (  20.4836951297,   0.0000000000, -14.9071753535)

Analysis of symmetry for initial positions (statically):
 Subroutine PRICEL returns:
 Original cell was already a primitive cell.

 Routine SETGRP: Setting up the symmetry group for a
 simple monoclinic supercell.

 Subroutine GETGRP returns: Found  2 space group operations
 (whereof  1 operations were pure point group operations)
 out of a pool of  4 trial point group operations.

The static configuration has the point symmetry C_1 .
 The point group associated with its full space group is C_1h.

Analysis of symmetry for dynamics (positions and initial velocities):
 Subroutine PRICEL returns:
 Original cell was already a primitive cell.

 Routine SETGRP: Setting up the symmetry group for a
 simple monoclinic supercell.

 Subroutine GETGRP returns: Found  2 space group operations
 (whereof  1 operations were pure point group operations)
 out of a pool of  4 trial point group operations.

The dynamic configuration has the point symmetry C_1 .
 The point group associated with its full space group is C_1h.

Analysis of magnetic symmetry:

 Subroutine MAGSYM returns: Found  2 space group operations
 (whereof  1 operations were pure point group operations)
 out of a pool of  2 trial space group operations
 (whereof  1 operations were pure point group operations)
 and found also     1 'primitive' translations

The magnetic configuration has the point symmetry C_1 .
 The point group associated with its full space group is C_1h.

 irot  :   1
 isymop:   1   0   0
           0   1   0
           0   0   1

 gtrans:     0.0000000     0.0000000     0.0000000

 ptrans:     0.0000000     0.0000000     0.0000000
 rotmap:
 (   1->   1)  (   2->   2)  (   3->   3)  (   4->   4)  (   5->   5)
 (   6->   6)  (   7->   7)  (   8->   8)  (   9->   9)  (  10->  10)
 (  11->  11)  (  12->  12)  (  13->  13)  (  14->  14)  (  15->  15)
 (  16->  16)  (  17->  17)  (  18->  18)  (  19->  19)  (  20->  20)
 (  21->  21)  (  22->  22)  (  23->  23)  (  24->  24)  (  25->  25)
 (  26->  26)  (  27->  27)  (  28->  28)  (  29->  29)  (  30->  30)
 (  31->  31)  (  32->  32)  (  33->  33)  (  34->  34)  (  35->  35)
 (  36->  36)  (  37->  37)  (  38->  38)  (  39->  39)  (  40->  40)
 (  41->  41)  (  42->  42)  (  43->  43)  (  44->  44)  (  45->  45)
 (  46->  46)

 irot  :   2
 isymop:  -1   0   0
           0   1   0
           0   0   1

 gtrans:    -0.5000000     0.0000000     0.0000000

 ptrans:     0.0000000     0.0000000     0.0000000
 rotmap:
 (   1->   1)  (   2->   2)  (   3->   3)  (   4->   4)  (   5->   5)
 (   6->   6)  (   7->   7)  (   8->   8)  (   9->   9)  (  10->  10)
 (  11->  11)  (  12->  12)  (  13->  13)  (  14->  14)  (  15->  15)
 (  16->  16)  (  17->  17)  (  18->  18)  (  19->  19)  (  20->  20)
 (  21->  21)  (  22->  22)  (  23->  23)  (  24->  24)  (  25->  25)
 (  26->  26)  (  27->  27)  (  28->  28)  (  29->  29)  (  30->  30)
 (  31->  31)  (  32->  32)  (  33->  33)  (  34->  34)  (  35->  35)
 (  36->  36)  (  37->  37)  (  38->  38)  (  39->  39)  (  40->  40)
 (  41->  41)  (  42->  42)  (  43->  43)  (  44->  44)  (  45->  45)
 (  46->  46)

 KPOINTS: Automatic mesh

Automatic generation of k-mesh.
Space group operators:
 irot       det(A)        alpha          n_x          n_y          n_z        tau_x        tau_y        tau_z
    1     1.000000     0.000000     1.000000     0.000000     0.000000     0.000000     0.000000     0.000000
    2    -1.000000   180.000000     0.000000     1.000000     0.000000    -0.500000     0.000000     0.000000

 Subroutine IBZKPT returns following result:

 Found     24 irreducible k-points:

 Following reciprocal coordinates:
            Coordinates               Weight
  0.000000  0.000000  0.000000      1.000000
  0.100000  0.000000  0.000000      2.000000
  0.200000  0.000000  0.000000      2.000000
  0.300000  0.000000  0.000000      2.000000
  0.400000  0.000000  0.000000      2.000000
  0.500000  0.000000  0.000000      1.000000
  0.000000  0.333333  0.000000      2.000000
  0.100000  0.333333  0.000000      4.000000
  0.200000  0.333333  0.000000      4.000000
  0.300000  0.333333  0.000000      4.000000
  0.400000  0.333333  0.000000      4.000000
  0.500000  0.333333  0.000000      2.000000
  0.000000 -0.000000  0.500000      1.000000
  0.100000 -0.000000  0.500000      2.000000
  0.200000 -0.000000  0.500000      2.000000
  0.300000 -0.000000  0.500000      2.000000
  0.400000 -0.000000  0.500000      2.000000
  0.500000 -0.000000  0.500000      1.000000
  0.000000  0.333333  0.500000      2.000000
  0.100000  0.333333  0.500000      4.000000
  0.200000  0.333333  0.500000      4.000000
  0.300000  0.333333  0.500000      4.000000
  0.400000  0.333333  0.500000      4.000000
  0.500000  0.333333  0.500000      2.000000

 Following cartesian coordinates:
            Coordinates               Weight
  0.000000  0.000000  0.000000      1.000000
  0.000000  0.034821  0.000000      2.000000
  0.000000  0.069642  0.000000      2.000000
  0.000000  0.104463  0.000000      2.000000
  0.000000  0.139283  0.000000      2.000000
  0.000000  0.174104  0.000000      1.000000
  0.031929  0.000000 -0.000848      2.000000
  0.031929  0.034821 -0.000848      4.000000
  0.031929  0.069642 -0.000848      4.000000
  0.031929  0.104463 -0.000848      4.000000
[...]
    142       7.0954      0.00000
    143       7.1228      0.00000
    144       7.2575      0.00000

 soft charge-density along one line, spin component           1
         0         1         2         3         4         5         6         7         8         9
 total charge-density along one line

 soft charge-density along one line, spin component           2
         0         1         2         3         4         5         6         7         8         9
 total charge-density along one line

------------------------ aborting loop because EDIFF is reached ----------------------------------------

 total charge

# of ion     s       p       d       tot
  1        0.303   0.409   4.822   5.534
  2        0.308   0.420   4.838   5.566
  3        0.307   0.414   4.834   5.556
  4        0.340   0.527   4.779   5.647
  5        0.300   0.408   4.809   5.517
  6        0.344   0.532   4.804   5.680
  7        0.309   0.419   4.833   5.561
  8        0.300   0.406   4.813   5.518
  9        0.306   0.406   4.821   5.533
 10        0.300   0.411   4.818   5.529
 11        0.303   0.407   4.818   5.527
 12        0.297   0.407   4.825   5.529
 13        1.560   3.476   0.000   5.036
 14        1.557   3.476   0.000   5.033
 15        1.561   3.461   0.000   5.021
 16        1.558   3.466   0.000   5.024
 17        1.561   3.472   0.000   5.033
 18        1.559   3.464   0.000   5.023
 19        1.565   3.429   0.000   4.993
 20        1.554   3.473   0.000   5.027
 21        1.568   3.440   0.000   5.008
 22        1.558   3.455   0.000   5.013
 23        1.559   3.460   0.000   5.020
 24        1.556   3.469   0.000   5.025
 25        1.565   3.432   0.000   4.997
 26        1.556   3.477   0.000   5.033
 27        1.560   3.464   0.000   5.024
 28        1.554   3.474   0.000   5.028
 29        1.559   3.467   0.000   5.026
 30        1.559   3.461   0.000   5.020
 31        1.568   3.461   0.000   5.028
 32        1.558   3.451   0.000   5.009
 33        1.566   3.443   0.000   5.009
 34        1.558   3.452   0.000   5.010
 35        1.560   3.492   0.000   5.053
 36        1.555   3.470   0.000   5.025
 37        0.092   0.183   0.000   0.275
 38        0.085   0.172   0.000   0.256
 39        0.087   0.179   0.000   0.266
 40        0.096   0.201   0.000   0.297
 41        0.088   0.181   0.000   0.269
 42        0.103   0.209   0.000   0.311
 43        0.090   0.181   0.000   0.271
 44        0.084   0.168   0.000   0.252
 45        0.089   0.184   0.000   0.272
 46        0.105   0.216   0.000   0.321
tot       42.067  90.123  57.816 190.005

 magnetization (x)

[...]

  FORCE on cell =-STRESS in cart. coord.  units (eV):
  Direction    XX          YY          ZZ          XY          YZ          ZX
  Alpha Z   784.76800   784.76800   784.76800
  Ewald   -4418.70771 -1978.11456 -5321.10521     0.00000    -0.00000  -406.30678
  Hartree  1478.05432  2768.64757   535.81521     0.00000     0.00000  -248.76157
  E(xc)   -1155.21891 -1156.32099 -1156.30113    -0.00000     0.00000    -0.22116
  Local    -472.49199 -4083.69013  1414.24214    -0.00000    -0.00000   644.77042
  n-local  -808.38374  -765.40611  -792.23354     0.00281    -0.01018    -4.80184
  augment   542.26190   521.51949   534.57582     0.00000    -0.00000     2.38456
  Kinetic  4044.90343  3902.18479  3996.34493    -0.00181     0.02814    12.63625
  Fock        0.00000     0.00000     0.00000     0.00000     0.00000     0.00000
  Total      -4.81471    -6.41194    -3.89377     0.00000     0.00000    -0.30012
  in kB     -16.64179   -22.16256   -13.45861     0.00000     0.00000    -1.03736

 VOLUME and BASIS-vectors are now :
  energy-cutoff  :      520.00
  volume of cell :      463.53
      direct lattice vectors                 reciprocal lattice vectors
     0.000000000  2.871842421  0.000000000     0.000000000  0.348208520  0.000000000
    10.447198417  0.000000000  0.276697749     0.095786834  0.000000000 -0.002544525
    -0.410701704  0.000000000-15.460570852     0.001714296  0.000000000 -0.064726204

  length of vectors
     2.871842421 10.450861993 15.466024924     0.348208520  0.095820625  0.064748902

 FORCES acting on ions
    electron-ion (+dipol)            ewald-force                    non-local-force                 convergence-correction
   -.416E+02 0.110E-15 -.791E+01   0.418E+02 -.865E-14 0.809E+01   -.185E+00 0.117E-19 -.330E+00   -.549E-01 0.689E-13 0.201E+00
   -.787E+01 0.157E-13 -.165E+02   0.791E+01 -.560E-14 0.175E+02   -.213E+00 -.355E-19 -.123E+01   0.155E+00 0.281E-13 0.266E+00
   -.260E+02 0.384E-14 -.168E+00   0.259E+02 0.182E-13 0.376E+00   0.319E+00 -.289E-20 0.720E+00   -.282E+00 0.217E-12 -.973E+00
   -.335E+02 0.186E-13 0.340E+01   0.330E+02 -.411E-13 -.443E+01   0.711E-01 0.108E-19 0.264E+00   0.367E+00 0.590E-13 0.718E+00
   -.326E+02 0.106E-13 0.131E+02   0.331E+02 0.919E-14 -.140E+02   -.652E+00 -.145E-19 0.113E+01   0.178E+00 -.323E-12 -.361E+00
   -.385E+02 -.568E-14 -.347E+02   0.388E+02 0.477E-13 0.349E+02   -.566E+00 0.110E-19 -.159E+00   0.196E+00 0.171E-12 -.117E+00
   0.211E+02 0.500E-13 -.106E+02   -.207E+02 0.193E-14 0.114E+02   -.649E-02 -.119E-19 -.126E+01   -.409E+00 0.719E-13 0.535E+00
   -.172E+02 0.456E-13 0.510E+02   0.173E+02 -.275E-13 -.520E+02   -.278E+00 0.876E-20 0.168E+01   0.166E+00 0.117E-14 -.723E+00
   0.336E+02 0.461E-13 0.417E+02   -.322E+02 -.951E-14 -.426E+02   -.130E+01 -.613E-20 -.116E-01   -.150E+00 -.992E-14 0.873E+00
   0.440E+02 0.481E-13 0.185E+02   -.458E+02 0.312E-13 -.199E+02   0.141E+01 0.262E-19 0.685E+00   0.357E+00 0.575E-13 0.614E+00
   0.464E+02 0.474E-13 -.150E+01   -.461E+02 0.302E-13 0.191E+01   -.309E+00 -.128E-19 0.577E-01   0.353E-01 -.371E-14 -.442E+00
   0.615E+02 0.547E-13 -.551E+02   -.631E+02 -.320E-14 0.541E+02   0.146E+01 -.436E-19 0.745E+00   0.115E+00 -.298E-12 0.298E+00
   0.482E+02 0.675E-13 0.887E+02   -.548E+02 -.140E-13 -.996E+02   0.586E+01 0.151E-18 0.101E+02   0.607E+00 0.997E-12 0.678E+00
   0.608E+01 0.435E-13 0.818E+02   -.850E+01 -.167E-13 -.926E+02   0.202E+01 -.243E-19 0.966E+01   0.343E+00 0.933E-13 0.889E+00
   0.776E+02 0.722E-13 0.941E+02   -.860E+02 -.215E-14 -.105E+03   0.774E+01 -.314E-19 0.106E+02   0.484E+00 0.532E-13 0.478E+00
   -.281E+02 0.474E-13 -.361E+02   0.290E+02 -.581E-14 0.435E+02   -.116E+01 0.610E-20 -.737E+01   0.566E-01 -.172E-13 0.207E+00
   0.217E+02 0.862E-13 -.626E+02   -.280E+02 0.337E-13 0.720E+02   0.570E+01 -.121E-19 -.909E+01   0.420E+00 -.302E-13 -.150E+00
   -.584E+02 0.553E-13 -.433E+02   0.615E+02 0.120E-13 0.506E+02   -.374E+01 0.333E-19 -.577E+01   0.637E+00 0.322E-13 -.145E+01
   -.878E+02 0.157E-12 -.157E+03   0.967E+02 -.284E-14 0.170E+03   -.850E+01 0.201E-18 -.122E+02   -.281E+00 -.423E-12 -.113E+00
   -.148E+02 0.128E-12 -.457E+02   0.160E+02 0.965E-14 0.557E+02   -.132E+01 -.486E-19 -.822E+01   0.164E+00 0.104E-12 -.145E+01
   -.110E+03 0.157E-12 -.176E+03   0.120E+03 -.585E-14 0.189E+03   -.104E+02 -.370E-18 -.129E+02   -.195E-01 -.901E-12 0.110E-02
   -.246E+02 0.153E-12 0.610E+02   0.293E+02 -.229E-13 -.709E+02   -.431E+01 0.709E-19 0.857E+01   -.202E+00 0.673E-13 0.116E+01
   -.269E+02 0.166E-12 0.112E+03   0.349E+02 -.288E-13 -.124E+03   -.725E+01 0.246E-19 0.113E+02   -.632E+00 0.220E-13 -.144E-01
   -.108E+02 0.169E-12 0.607E+02   0.131E+02 0.254E-13 -.712E+02   -.201E+01 0.889E-21 0.907E+01   -.199E+00 0.198E-13 0.119E+01
   0.180E+01 0.551E-13 -.196E+03   -.250E+00 -.156E-13 0.209E+03   -.144E+01 -.635E-18 -.136E+02   0.732E-01 -.241E-13 -.514E-02
   -.357E+02 0.612E-13 -.127E+03   0.422E+02 -.182E-13 0.138E+03   -.595E+01 0.132E-19 -.943E+01   -.482E+00 -.704E-14 -.146E+01
   0.457E+01 0.543E-13 -.231E+03   -.246E+01 -.188E-13 0.244E+03   -.128E+01 0.177E-18 -.123E+02   -.650E+00 0.214E-12 -.204E+00
   -.393E+02 0.631E-13 0.153E+03   0.450E+02 -.736E-14 -.163E+03   -.495E+01 0.283E-19 0.921E+01   -.621E+00 -.915E-14 0.110E+01
   -.769E+02 0.476E-13 0.191E+03   0.852E+02 0.261E-13 -.204E+03   -.700E+01 0.659E-20 0.117E+02   -.101E+01 -.153E-14 0.279E+00
   -.433E+02 0.441E-13 0.156E+03   0.505E+02 -.130E-13 -.169E+03   -.675E+01 -.866E-20 0.120E+02   -.336E+00 0.101E-12 0.887E+00
   0.775E+02 0.129E-12 0.224E+03   -.858E+02 0.491E-13 -.236E+03   0.757E+01 -.237E-19 0.112E+02   0.625E+00 -.392E-13 0.998E+00
   0.607E+02 0.157E-12 0.159E+03   -.691E+02 -.126E-13 -.169E+03   0.742E+01 -.131E-18 0.895E+01   0.863E+00 0.642E-12 0.731E+00
   0.876E+02 0.159E-12 0.183E+03   -.965E+02 -.106E-13 -.194E+03   0.868E+01 -.940E-19 0.111E+02   0.122E+00 -.376E-13 -.332E+00
   0.417E+02 0.149E-12 -.152E+03   -.496E+02 0.955E-14 0.163E+03   0.730E+01 -.755E-19 -.979E+01   0.489E+00 -.459E-13 -.419E+00
   0.658E+02 0.167E-12 -.185E+03   -.736E+02 -.843E-14 0.197E+03   0.713E+01 -.300E-22 -.110E+02   0.517E+00 0.335E-14 -.504E+00
   0.487E+02 0.155E-12 -.155E+03   -.553E+02 -.147E-13 0.166E+03   0.629E+01 0.107E-19 -.952E+01   0.192E+00 -.793E-12 -.133E+01
   0.795E+01 -.141E-14 0.628E+00   -.814E+01 0.260E-14 -.539E+00   0.183E+00 -.555E-20 -.146E+00   -.623E-02 0.990E-15 0.564E-01
   0.731E+01 0.316E-15 -.107E+01   -.754E+01 0.486E-14 0.927E+00   0.220E+00 0.112E-19 0.139E+00   -.743E-02 0.925E-15 -.101E-01
   0.107E+02 0.369E-14 0.560E+00   -.996E+01 -.161E-14 -.432E-01   -.758E+00 0.427E-20 -.558E+00   0.217E-01 -.209E-14 0.434E-01
   0.633E+01 0.188E-14 0.509E+00   -.710E+01 -.313E-14 -.116E+01   0.737E+00 -.475E-21 0.798E+00   0.436E-01 -.849E-16 -.135E+00
   -.936E+01 -.546E-14 -.229E+01   0.966E+01 -.458E-14 0.263E+01   -.172E+00 0.536E-21 -.358E+00   -.619E-01 -.218E-15 0.496E-01
   0.221E+01 -.161E-14 0.113E+02   -.186E+01 0.285E-14 -.119E+02   -.394E+00 -.129E-19 0.619E+00   -.160E-01 0.253E-15 -.100E-01
   -.965E+01 -.292E-14 -.397E+01   0.101E+02 -.153E-14 0.404E+01   -.392E+00 0.419E-20 0.145E-01   0.365E-02 -.450E-15 -.553E-01
   -.119E+02 -.125E-14 0.836E+01   0.116E+02 -.901E-15 -.762E+01   0.206E+00 0.143E-20 -.776E+00   0.184E-01 0.310E-15 0.506E-01
   -.493E+01 -.482E-14 -.170E+01   0.457E+01 0.114E-14 0.117E+01   0.403E+00 -.250E-19 0.684E+00   -.225E-01 -.724E-16 -.121E+00
   0.554E+01 -.332E-14 -.174E+02   -.506E+01 0.188E-14 0.176E+02   -.534E+00 -.631E-20 -.222E+00   0.708E-02 0.140E-15 0.521E-01
   -.681E+00 0.286E-11 -.670E+01   -.266E-14 -.847E-14 -.128E-12   -.115E+01 -.819E-18 0.473E+01   0.181E+01 0.598E-13 0.198E+01

 POSITION                                       TOTAL-FORCE (eV/Angst)
      1.20074      0.71796    -10.00152         0.018004     -0.000000      0.053599
      1.49880      0.71796     -4.81785        -0.026272      0.000000      0.028816
      0.64258      0.71796    -15.19277        -0.013673     -0.000000     -0.045346
      6.43614      0.71796     -7.83552        -0.048792      0.000000     -0.049299
      6.59694      0.71796     -2.67385         0.030565      0.000000     -0.064842
      6.05648      0.71796    -13.05235        -0.067553      0.000000     -0.008162
      9.18234      2.15388     -4.87418        -0.012150      0.000000      0.064863
      8.64045      2.15388     -0.01881        -0.051134      0.000000     -0.008097
      8.74316      2.15388    -10.07057         0.013459      0.000000     -0.029101
      3.68996      2.15388     -7.61876         0.024206      0.000000     -0.042508
      3.63577      2.15388     -2.28130         0.012485      0.000000      0.024140
      3.31476      2.15388    -12.60082         0.030194      0.000000      0.026294
      2.77294      0.71796     -8.48030        -0.196844     -0.000000     -0.077447
      3.22656      0.71796     -3.51048        -0.052873     -0.000000     -0.226081
      2.55583      0.71796    -13.64734        -0.192620      0.000000     -0.174785
      8.09692      0.71796     -8.92928        -0.117375      0.000000      0.223047
      8.20112      0.71796     -4.07079        -0.168254      0.000000      0.146074
      7.57867      0.71796    -14.29026        -0.037242      0.000000      0.121160
      7.14375      2.15388     -6.75832         0.119810      0.000000      0.161700
      6.98141      2.15388     -1.39979         0.072285      0.000000      0.274499
      6.80369      2.15388    -12.03282         0.150506     -0.000000      0.142997
      2.25256      2.15388     -5.93252         0.156825     -0.000000     -0.180394
      1.80870      2.15388     -0.79298         0.134186     -0.000000     -0.122825
      1.69508      2.15388    -11.20630         0.129083     -0.000000     -0.285678
      4.76712      0.71796     -6.73644         0.183196      0.000000      0.180344
      4.29887      0.71796     -1.14006         0.056990      0.000000      0.217425
      4.46648      0.71796    -11.82229         0.180054     -0.000000      0.246381
      9.86959      0.71796     -6.04373         0.133988      0.000000     -0.329871
      9.65579      0.71796     -0.81245         0.245674     -0.000000     -0.192466
      9.35002      0.71796    -11.20996         0.060811      0.000000     -0.222143
      5.65406      2.15388     -8.83361        -0.092899      0.000000     -0.219968
      5.79318      2.15388     -3.73932        -0.125941     -0.000000     -0.193386
      5.21445      2.15388    -14.04531        -0.132123      0.000000     -0.245528
      0.27705      2.15388     -9.03559        -0.135250      0.000000      0.228575
      0.55021      2.15388     -3.95772        -0.149775     -0.000000      0.188049
     -0.07744      2.15388    -14.07448        -0.113525     -0.000000      0.296711
      1.05893      0.71796     -7.39689        -0.010402      0.000000     -0.000334
      0.63714      0.71796    -12.60655        -0.014202      0.000000     -0.016104
      6.56202      0.71796     -5.22163         0.000715      0.000000      0.002201
      5.96111      0.71796     -0.19108         0.003534      0.000000      0.012589
      9.14271      2.15388     -7.43436         0.069069      0.000000      0.029143
      0.26895      2.15388     -2.13190        -0.066057      0.000000      0.006553
      8.72494      2.15388    -12.74215         0.025024      0.000000      0.036002
      4.09070      2.15388     -4.84219        -0.003088      0.000000      0.009940
      3.18935      2.15388    -15.22232         0.021518      0.000000      0.030354
      5.35706      2.15388    -10.66709        -0.044135      0.000000     -0.017090
    total drift:                               -0.014385      0.000000      0.009442

  FREE ENERGIE OF THE ION-ELECTRON SYSTEM (eV)
  free  energy   TOTEN  =      -304.29796168 eV

  energy  without entropy=     -304.29796168  energy(sigma->0) =     -304.29796168

 writing wavefunctions

 total charge

[...]

 magnetization (x)

# of ion     s       p       d       tot
  1        0.038   0.032   3.778   3.847
  2       -0.038  -0.034  -3.812  -3.884
  3        0.042   0.032   3.817   3.891
  4       -0.025  -0.034  -3.179  -3.237
  5        0.037   0.032   3.772   3.841
  6       -0.026  -0.035  -3.199  -3.259
  7        0.040   0.038   3.816   3.894
  8       -0.034  -0.033  -3.786  -3.853
  9        0.045   0.030   3.787   3.862
 10       -0.037  -0.029  -3.769  -3.835
 11        0.044   0.029   3.775   3.848
 12       -0.032  -0.032  -3.785  -3.850
 13        0.007   0.070   0.000   0.078
 14       -0.007  -0.066   0.000  -0.073
 15        0.005   0.063   0.000   0.068
 16       -0.001  -0.003   0.000  -0.004
 17        0.006  -0.016   0.000  -0.010
 18        0.001   0.076   0.000   0.077
 19        0.002   0.071   0.000   0.074
 20       -0.007  -0.074   0.000  -0.080
 21        0.002   0.078   0.000   0.081
 22       -0.006   0.024   0.000   0.018
 23        0.005  -0.019   0.000  -0.015
 24       -0.007  -0.064   0.000  -0.071
 25        0.001   0.140   0.000   0.140
 26        0.000  -0.022   0.000  -0.022
 27        0.000   0.104   0.000   0.105
 28       -0.003  -0.051   0.000  -0.054
 29        0.005   0.075   0.000   0.080
 30        0.001  -0.015   0.000  -0.014
 31       -0.004   0.042   0.000   0.038
 32        0.002  -0.035   0.000  -0.034
 33       -0.004   0.036   0.000   0.032
 34        0.003  -0.007   0.000  -0.004
 35        0.006   0.076   0.000   0.082
 36       -0.003  -0.049   0.000  -0.051
 37       -0.000   0.001   0.000   0.000
 38       -0.001   0.000   0.000  -0.000
 39        0.001   0.002   0.000   0.003
 40       -0.000   0.001   0.000   0.000
 41       -0.002  -0.002   0.000  -0.004
 42        0.000   0.001   0.000   0.001
 43       -0.001  -0.000   0.000  -0.001
 44       -0.001   0.000   0.000  -0.000
 45       -0.000   0.001   0.000   0.001
 46       -0.002  -0.001   0.000  -0.004
tot        0.054   0.433   1.215   1.702

 BZINTS: Fermi energy:  3.129260;238.000000 electrons
         Band energy:-801.959090;  BLOECHL correction: -0.001050