 vasp.5.3.3 18Dez12 (build May 12 2016 12:04:25) complex

 executed on             LinuxIFC date 2019.05.18  10:39:54

 INCAR:
 POTCAR:    PAW_PBE O 08Apr2002
 POTCAR:    PAW_PBE Mn 06Sep2000
 POTCAR:    PAW_PBE O 08Apr2002

 POTCAR:    PAW_PBE Mn 06Sep2000

  PAW_PBE O 08Apr2002                   :
  PAW_PBE Mn 06Sep2000                  :

 POSCAR: (Mn O2)2  (P4_2/mnm) ~  (Pearson #311740
  positions in direct lattice
  velocities in cartesian coordinates
 exchange correlation table for  LEXCH =       14
   RHO(1)=    0.500       N(1)  =     2000
   RHO(2)=  100.500       N(2)  =     4000

 ion  position               nearest neighbor table
   1  0.303  0.303  0.000-   6 1.87   6 1.87   5 1.88
   2  0.803  0.197  0.500-   5 1.87   5 1.87   6 1.88
   3  0.197  0.803  0.500-   5 1.87   5 1.87   6 1.88
   4  0.697  0.697  0.000-   6 1.87   6 1.87   5 1.88
   5  0.000  0.000  0.000-   2 1.87   3 1.87   2 1.87   3 1.87   1 1.88   4 1.88
   6  0.500  0.500  0.500-   1 1.87   4 1.87   1 1.87   4 1.87   3 1.88   2 1.88

  LATTYP: Found a simple tetragonal cell.
 ALAT       =     4.3783520478
 C/A-ratio  =     0.6489002930

  Lattice vectors:

 A1 = (   4.3783520478,   0.0000000000,   0.0000000000)
 A2 = (   0.0000000000,   4.3783520478,   0.0000000000)
 A3 = (   0.0000000000,   0.0000000000,   2.8411139264)

Analysis of symmetry for initial positions (statically):
 Subroutine PRICEL returns:
 Original cell was already a primitive cell.

 Routine SETGRP: Setting up the symmetry group for a
 simple tetragonal supercell.

 Subroutine GETGRP returns: Found 16 space group operations
 (whereof  8 operations were pure point group operations)
 out of a pool of 16 trial point group operations.

The static configuration has the point symmetry D_2h.
 The point group associated with its full space group is D_4h.

Analysis of symmetry for dynamics (positions and initial velocities):
 Subroutine PRICEL returns:
 Original cell was already a primitive cell.

 Routine SETGRP: Setting up the symmetry group for a
 simple tetragonal supercell.

 Subroutine GETGRP returns: Found 16 space group operations
 (whereof  8 operations were pure point group operations)
 out of a pool of 16 trial point group operations.

The dynamic configuration has the point symmetry D_2h.
 The point group associated with its full space group is D_4h.

Analysis of magnetic symmetry:

 Subroutine MAGSYM returns: Found 16 space group operations
 (whereof  8 operations were pure point group operations)
 out of a pool of 16 trial space group operations
 (whereof  8 operations were pure point group operations)
 and found also     1 'primitive' translations

The magnetic configuration has the point symmetry D_2h.
 The point group associated with its full space group is D_4h.

 irot  :   1
 isymop:   1   0   0
           0   1   0
           0   0   1

 gtrans:     0.0000000     0.0000000     0.0000000

 ptrans:     0.0000000     0.0000000     0.0000000
 rotmap:
 (   1->   1)  (   2->   2)  (   3->   3)  (   4->   4)  (   5->   5)
 (   6->   6)

[...]

 irot  :  16
 isymop:  -1   0   0
           0   1   0
           0   0   1

 gtrans:     0.5000000     0.5000000     0.5000000

 ptrans:     0.0000000     0.0000000     0.0000000
 rotmap:
 (   1->   3)  (   2->   4)  (   3->   1)  (   4->   2)  (   5->   6)
 (   6->   5)

 KPOINTS: Automatic mesh

Automatic generation of k-mesh.
Space group operators:
 irot       det(A)        alpha          n_x          n_y          n_z        tau_x        tau_y        tau_z
    1     1.000000     0.000000     1.000000     0.000000     0.000000     0.000000     0.000000     0.000000
    2    -1.000000     0.000000     1.000000     0.000000     0.000000     0.000000     0.000000     0.000000
    3     1.000000   180.000000     0.000000     0.000000     1.000000     0.000000     0.000000     0.000000
    4    -1.000000   180.000000     0.000000     0.000000     1.000000     0.000000     0.000000     0.000000
    5     1.000000   180.000000     0.707107     0.707107     0.000000     0.000000     0.000000     0.000000
    6    -1.000000   180.000000     0.707107     0.707107     0.000000     0.000000     0.000000     0.000000
    7     1.000000   180.000000     0.707107    -0.707107     0.000000     0.000000     0.000000     0.000000
    8    -1.000000   180.000000     0.707107    -0.707107     0.000000     0.000000     0.000000     0.000000
    9     1.000000    90.000000     0.000000     0.000000    -1.000000     0.500000     0.500000     0.500000
   10    -1.000000    90.000000     0.000000     0.000000    -1.000000     0.500000     0.500000     0.500000
   11     1.000000    90.000000     0.000000     0.000000     1.000000     0.500000     0.500000     0.500000
   12    -1.000000    90.000000     0.000000     0.000000     1.000000     0.500000     0.500000     0.500000
   13     1.000000   180.000000     0.000000     1.000000     0.000000     0.500000     0.500000     0.500000
   14    -1.000000   180.000000     0.000000     1.000000     0.000000     0.500000     0.500000     0.500000
   15     1.000000   180.000000     1.000000     0.000000     0.000000     0.500000     0.500000     0.500000
   16    -1.000000   180.000000     1.000000     0.000000     0.000000     0.500000     0.500000     0.500000

 Subroutine IBZKPT returns following result:

 Found     50 irreducible k-points:

 Following reciprocal coordinates:
            Coordinates               Weight
  0.000000  0.000000  0.000000      1.000000
  0.166667  0.000000  0.000000      4.000000
  0.333333  0.000000  0.000000      4.000000
  0.500000  0.000000  0.000000      2.000000
  0.166667  0.166667  0.000000      4.000000
  0.333333  0.166667  0.000000      8.000000
  0.500000  0.166667  0.000000      4.000000
  0.333333  0.333333  0.000000      4.000000
  0.500000  0.333333  0.000000      4.000000
  0.500000  0.500000  0.000000      1.000000
  0.000000  0.000000  0.111111      2.000000
  0.166667  0.000000  0.111111      8.000000
  0.333333  0.000000  0.111111      8.000000
  0.500000  0.000000  0.111111      4.000000
  0.166667  0.166667  0.111111      8.000000
  0.333333  0.166667  0.111111     16.000000
  0.500000  0.166667  0.111111      8.000000
  0.333333  0.333333  0.111111      8.000000
  0.500000  0.333333  0.111111      8.000000
  0.500000  0.500000  0.111111      2.000000
  0.000000  0.000000  0.222222      2.000000
  0.166667  0.000000  0.222222      8.000000
  0.333333  0.000000  0.222222      8.000000
  0.500000  0.000000  0.222222      4.000000
  0.166667  0.166667  0.222222      8.000000
  0.333333  0.166667  0.222222     16.000000
  0.500000  0.166667  0.222222      8.000000
  0.333333  0.333333  0.222222      8.000000
  0.500000  0.333333  0.222222      8.000000
  0.500000  0.500000  0.222222      2.000000
  0.000000  0.000000  0.333333      2.000000
  0.166667  0.000000  0.333333      8.000000
  0.333333  0.000000  0.333333      8.000000
  0.500000  0.000000  0.333333      4.000000
  0.166667  0.166667  0.333333      8.000000
  0.333333  0.166667  0.333333     16.000000
  0.500000  0.166667  0.333333      8.000000
  0.333333  0.333333  0.333333      8.000000
  0.500000  0.333333  0.333333      8.000000
  0.500000  0.500000  0.333333      2.000000
  0.000000  0.000000  0.444444      2.000000
  0.166667  0.000000  0.444444      8.000000
  0.333333  0.000000  0.444444      8.000000
  0.500000  0.000000  0.444444      4.000000
  0.166667  0.166667  0.444444      8.000000
  0.333333  0.166667  0.444444     16.000000
  0.500000  0.166667  0.444444      8.000000
  0.333333  0.333333  0.444444      8.000000
  0.500000  0.333333  0.444444      8.000000
  0.500000  0.500000  0.444444      2.000000

 Following cartesian coordinates:
            Coordinates               Weight
  0.000000  0.000000  0.000000      1.000000
  0.038066  0.000000  0.000000      4.000000
  0.076132  0.000000  0.000000      4.000000
  0.114198  0.000000  0.000000      2.000000
  0.038066  0.038066  0.000000      4.000000
  0.076132  0.038066  0.000000      8.000000
  0.114198  0.038066  0.000000      4.000000
  0.076132  0.076132  0.000000      4.000000
  0.114198  0.076132  0.000000      4.000000
  0.114198  0.114198  0.000000      1.000000
  0.000000  0.000000  0.039108      2.000000
  0.038066  0.000000  0.039108      8.000000
  0.076132  0.000000  0.039108      8.000000
  0.114198  0.000000  0.039108      4.000000
  0.038066  0.038066  0.039108      8.000000
  0.076132  0.038066  0.039108     16.000000
  0.114198  0.038066  0.039108      8.000000
  0.076132  0.076132  0.039108      8.000000
  0.114198  0.076132  0.039108      8.000000
  0.114198  0.114198  0.039108      2.000000
  0.000000  0.000000  0.078217      2.000000
  0.038066  0.000000  0.078217      8.000000
  0.076132  0.000000  0.078217      8.000000
  0.114198  0.000000  0.078217      4.000000
  0.038066  0.038066  0.078217      8.000000
  0.076132  0.038066  0.078217     16.000000
  0.114198  0.038066  0.078217      8.000000
  0.076132  0.076132  0.078217      8.000000
  0.114198  0.076132  0.078217      8.000000
  0.114198  0.114198  0.078217      2.000000
  0.000000  0.000000  0.117325      2.000000
  0.038066  0.000000  0.117325      8.000000
  0.076132  0.000000  0.117325      8.000000
  0.114198  0.000000  0.117325      4.000000
  0.038066  0.038066  0.117325      8.000000
  0.076132  0.038066  0.117325     16.000000
  0.114198  0.038066  0.117325      8.000000
  0.076132  0.076132  0.117325      8.000000
  0.114198  0.076132  0.117325      8.000000
  0.114198  0.114198  0.117325      2.000000
  0.000000  0.000000  0.156433      2.000000
  0.038066  0.000000  0.156433      8.000000
  0.076132  0.000000  0.156433      8.000000
  0.114198  0.000000  0.156433      4.000000
  0.038066  0.038066  0.156433      8.000000
  0.076132  0.038066  0.156433     16.000000
  0.114198  0.038066  0.156433      8.000000
  0.076132  0.076132  0.156433      8.000000
  0.114198  0.076132  0.156433      8.000000
  0.114198  0.114198  0.156433      2.000000

 TETIRR: Found    489 inequivalent tetrahedra from     1944

 I would recommend the setting:
   dimension x,y,z NGX =    24 NGY =   24 NGZ =   16
 SYSTEM =  (Mn O2)2  (P4_2/mnm) ~  (Pearson
 POSCAR =  (Mn O2)2  (P4_2/mnm) ~  (Pearson #311740

 Startparameter for this run:
   NWRITE =      1    write-flag & timer
   PREC   = normal    normal or accurate (medium, high low for compatibility)
   ISTART =      0    job   : 0-new  1-cont  2-samecut
   ICHARG =      2    charge: 1-file 2-atom 10-const
   ISPIN  =      2    spin polarized calculation?
   LNONCOLLINEAR =      F non collinear calculations
   LSORBIT =      F    spin-orbit coupling
   INIWAV =      1    electr: 0-lowe 1-rand  2-diag
   LASPH  =      F    aspherical Exc in radial PAW
   METAGGA=      F    non-selfconsistent MetaGGA calc.

 Electronic Relaxation 1
   ENCUT  =  520.0 eV  38.22 Ry    6.18 a.u.   8.14  8.14  5.28*2*pi/ulx,y,z
   ENINI  =  520.0     initial cutoff
   ENAUG  =  605.4 eV  augmentation charge cutoff
   NELM   =     60;   NELMIN=  2; NELMDL= -5     # of ELM steps
   EDIFF  = 0.1E-03   stopping-criterion for ELM
   LREAL  =      F    real-space projection
[...]
   0.50000000  0.00000000  0.00000000       0.006
   0.16666667  0.16666667  0.00000000       0.012
   0.33333333  0.16666667  0.00000000       0.025
   0.50000000  0.16666667  0.00000000       0.012
   0.33333333  0.33333333  0.00000000       0.012
   0.50000000  0.33333333  0.00000000       0.012
   0.50000000  0.50000000  0.00000000       0.003
   0.00000000  0.00000000  0.11111111       0.006
   0.16666667  0.00000000  0.11111111       0.025
   0.33333333  0.00000000  0.11111111       0.025
   0.50000000  0.00000000  0.11111111       0.012
   0.16666667  0.16666667  0.11111111       0.025
   0.33333333  0.16666667  0.11111111       0.049
   0.50000000  0.16666667  0.11111111       0.025
   0.33333333  0.33333333  0.11111111       0.025
   0.50000000  0.33333333  0.11111111       0.025
   0.50000000  0.50000000  0.11111111       0.006
   0.00000000  0.00000000  0.22222222       0.006
   0.16666667  0.00000000  0.22222222       0.025
   0.33333333  0.00000000  0.22222222       0.025
   0.50000000  0.00000000  0.22222222       0.012
   0.16666667  0.16666667  0.22222222       0.025
   0.33333333  0.16666667  0.22222222       0.049
   0.50000000  0.16666667  0.22222222       0.025
   0.33333333  0.33333333  0.22222222       0.025
   0.50000000  0.33333333  0.22222222       0.025
   0.50000000  0.50000000  0.22222222       0.006
   0.00000000  0.00000000  0.33333333       0.006
   0.16666667  0.00000000  0.33333333       0.025
   0.33333333  0.00000000  0.33333333       0.025
   0.50000000  0.00000000  0.33333333       0.012
   0.16666667  0.16666667  0.33333333       0.025
   0.33333333  0.16666667  0.33333333       0.049
   0.50000000  0.16666667  0.33333333       0.025
   0.33333333  0.33333333  0.33333333       0.025
   0.50000000  0.33333333  0.33333333       0.025
   0.50000000  0.50000000  0.33333333       0.006
   0.00000000  0.00000000  0.44444444       0.006
   0.16666667  0.00000000  0.44444444       0.025
   0.33333333  0.00000000  0.44444444       0.025
   0.50000000  0.00000000  0.44444444       0.012
   0.16666667  0.16666667  0.44444444       0.025
   0.33333333  0.16666667  0.44444444       0.049
   0.50000000  0.16666667  0.44444444       0.025
   0.33333333  0.33333333  0.44444444       0.025
   0.50000000  0.33333333  0.44444444       0.025
   0.50000000  0.50000000  0.44444444       0.006

 position of ions in fractional coordinates (direct lattice)
   0.30337010  0.30337010  0.00000000
   0.80337010  0.19662990  0.50000000
   0.19662990  0.80337010  0.50000000
   0.69662990  0.69662990  0.00000000
   0.00000000  0.00000000  0.00000000
   0.50000000  0.50000000  0.50000000

 position of ions in cartesian coordinates  (Angst):
   1.32826108  1.32826108  0.00000000
   3.51743710  0.86091495  1.42055696
   0.86091495  3.51743710  1.42055696
   3.05009097  3.05009097  0.00000000
   0.00000000  0.00000000  0.00000000
   2.18917602  2.18917602  1.42055696

 k-point  1 :   0.0000 0.0000 0.0000  plane waves:    1447
 k-point  2 :   0.1667 0.0000 0.0000  plane waves:    1472
 k-point  3 :   0.3333 0.0000 0.0000  plane waves:    1472
 k-point  4 :   0.5000 0.0000 0.0000  plane waves:    1464
 k-point  5 :   0.1667 0.1667 0.0000  plane waves:    1481
 k-point  6 :   0.3333 0.1667 0.0000  plane waves:    1460
 k-point  7 :   0.5000 0.1667 0.0000  plane waves:    1446
 k-point  8 :   0.3333 0.3333 0.0000  plane waves:    1464
 k-point  9 :   0.5000 0.3333 0.0000  plane waves:    1482
 k-point 10 :   0.5000 0.5000 0.0000  plane waves:    1504
 k-point 11 :   0.0000 0.0000 0.1111  plane waves:    1467
 k-point 12 :   0.1667 0.0000 0.1111  plane waves:    1467
 k-point 13 :   0.3333 0.0000 0.1111  plane waves:    1468
 k-point 14 :   0.5000 0.0000 0.1111  plane waves:    1466
 k-point 15 :   0.1667 0.1667 0.1111  plane waves:    1470
 k-point 16 :   0.3333 0.1667 0.1111  plane waves:    1466
 k-point 17 :   0.5000 0.1667 0.1111  plane waves:    1464
 k-point 18 :   0.3333 0.3333 0.1111  plane waves:    1477
 k-point 19 :   0.5000 0.3333 0.1111  plane waves:    1468
 k-point 20 :   0.5000 0.5000 0.1111  plane waves:    1476
 k-point 21 :   0.0000 0.0000 0.2222  plane waves:    1459
 k-point 22 :   0.1667 0.0000 0.2222  plane waves:    1460
 k-point 23 :   0.3333 0.0000 0.2222  plane waves:    1466
 k-point 24 :   0.5000 0.0000 0.2222  plane waves:    1454
 k-point 25 :   0.1667 0.1667 0.2222  plane waves:    1468
 k-point 26 :   0.3333 0.1667 0.2222  plane waves:    1470
 k-point 27 :   0.5000 0.1667 0.2222  plane waves:    1468
 k-point 28 :   0.3333 0.3333 0.2222  plane waves:    1465
 k-point 29 :   0.5000 0.3333 0.2222  plane waves:    1470
 k-point 30 :   0.5000 0.5000 0.2222  plane waves:    1464
 k-point 31 :   0.0000 0.0000 0.3333  plane waves:    1474
 k-point 32 :   0.1667 0.0000 0.3333  plane waves:    1459
 k-point 33 :   0.3333 0.0000 0.3333  plane waves:    1457
 k-point 34 :   0.5000 0.0000 0.3333  plane waves:    1462
 k-point 35 :   0.1667 0.1667 0.3333  plane waves:    1457
 k-point 36 :   0.3333 0.1667 0.3333  plane waves:    1460
 k-point 37 :   0.5000 0.1667 0.3333  plane waves:    1468
 k-point 38 :   0.3333 0.3333 0.3333  plane waves:    1469
 k-point 39 :   0.5000 0.3333 0.3333  plane waves:    1474
 k-point 40 :   0.5000 0.5000 0.3333  plane waves:    1468
 k-point 41 :   0.0000 0.0000 0.4444  plane waves:    1478
 k-point 42 :   0.1667 0.0000 0.4444  plane waves:    1473
 k-point 43 :   0.3333 0.0000 0.4444  plane waves:    1473
 k-point 44 :   0.5000 0.0000 0.4444  plane waves:    1464
 k-point 45 :   0.1667 0.1667 0.4444  plane waves:    1454
 k-point 46 :   0.3333 0.1667 0.4444  plane waves:    1460
 k-point 47 :   0.5000 0.1667 0.4444  plane waves:    1464
 k-point 48 :   0.3333 0.3333 0.4444  plane waves:    1469
 k-point 49 :   0.5000 0.3333 0.4444  plane waves:    1472
 k-point 50 :   0.5000 0.5000 0.4444  plane waves:    1472

 maximum and minimum number of plane-waves per node :       384      346

 maximum number of plane-waves:      1504
 maximum index in each direction:
   IXMAX=    8   IYMAX=    8   IZMAX=    5
   IXMIN=   -8   IYMIN=   -8   IZMIN=   -5

 WARNING: aliasing errors must be expected set NGX to  34 to avoid them
 WARNING: aliasing errors must be expected set NGY to  34 to avoid them
 WARNING: aliasing errors must be expected set NGZ to  22 to avoid them
 aliasing errors are usually negligible using standard VASP settings
 and one can safely disregard these warnings

 parallel 3D FFT for wavefunctions:
    minimum data exchange during FFTs selected (reduces bandwidth)
 parallel 3D FFT for charge:
    minimum data exchange during FFTs selected (reduces bandwidth)

 Broyden mixing: mesh for mixing (old mesh)
   NGX = 17   NGY = 17   NGZ = 11
  (NGX  = 48   NGY  = 48   NGZ  = 32)
  gives a total of   3179 points

 initial charge density was supplied:
 charge density of overlapping atoms calculated
 number of electron      38.0000000 magnetization       0.0000000
 keeping initial charge density in first step

 Maximum index for augmentation-charges          409 (set IRDMAX)

 First call to EWALD:  gamma=   0.468
 Maximum number of real-space cells 2x 2x 4
 Maximum number of reciprocal cells 3x 3x 2

 FEWALD executed in parallel

----------------------------------------- Iteration    1(   1)  ---------------------------------------

 BZINTS: Fermi energy: 23.017815; 38.000000 electrons
         Band energy: 392.180973;  BLOECHL correction: -0.226381

 eigenvalue-minimisations  :  4840
 total energy-change (2. order) : 0.4541546E+03  (-0.1861282E+04)
 number of electron      38.0000000 magnetization       0.0000000
 augmentation part       38.0000000 magnetization       0.0000000

 Free energy of the ion-electron system (eV)
  alpha Z        PSCENC =       174.68624819
  Ewald energy   TEWEN  =     -2242.87289468
  -1/2 Hartree   DENC   =      -541.84650198
  -exchange  EXHF       =         0.00000000
  -V(xc)+E(xc)   XCENC  =        93.58223382
  PAW double counting   =      2192.87916522    -2169.73980493
  entropy T*S    EENTRO =         0.00000000
  eigenvalues    EBANDS =       392.18097295
  atomic energy  EATOM  =      2555.28521479
  free energy    TOTEN  =       454.15463337 eV

  energy without entropy =      454.15463337  energy(sigma->0) =      454.15463337

[...]

 eigenvalue-minimisations  :  4856
 total energy-change (2. order) :-0.4262313E+03  (-0.4151890E+03)
 number of electron      38.0000000 magnetization       0.0000000
 augmentation part       38.0000000 magnetization       0.0000000

[...]

 BZINTS: Fermi energy:  7.948342; 38.000000 electrons
         Band energy:-121.875697;  BLOECHL correction: -0.109439

[...]

 Broyden mixing:
  rms(total) = 0.41211E+01    rms(broyden)= 0.41209E+01
  rms(prec ) = 0.68288E+01
  weight for this iteration     100.00

[...]

 eigenvalues of (default mixing * dielectric matrix)
  average eigenvalue GAMMA=   0.2867
  0.2867

[...]

 BZINTS: Fermi energy:  5.676401; 38.000000 electrons
         Band energy: -96.621134;  BLOECHL correction: -0.002123

[...]

 eigenvalue-minimisations  :  2624
 total energy-change (2. order) : 0.1230405E-03  (-0.1089327E-04)
 number of electron      38.0000142 magnetization      -0.0000000
 augmentation part        8.7079898 magnetization      -0.0000000

 Broyden mixing:
  rms(total) = 0.75027E-02    rms(broyden)= 0.75026E-02
  rms(prec ) = 0.12377E-01
  weight for this iteration     100.00

 eigenvalues of (default mixing * dielectric matrix)
  average eigenvalue GAMMA=   1.0730
  2.1616  2.0815  0.3198  1.0212  1.0212  0.6838  0.6838  0.6115

[...]

----------------------------------------- Iteration    1(  14)  ---------------------------------------

[...]

 eigenvalue-minimisations  :  2456
 total energy-change (2. order) :-0.1940777E-04  (-0.6687587E-05)
 number of electron      38.0000142 magnetization      -0.0000000
 augmentation part        8.7079898 magnetization      -0.0000000

 Free energy of the ion-electron system (eV)
  alpha Z        PSCENC =       174.68624819
  Ewald energy   TEWEN  =     -2242.87289468
  -1/2 Hartree   DENC   =      -547.01394615
  -exchange  EXHF       =         0.00000000
  -V(xc)+E(xc)   XCENC  =        95.06823224
  PAW double counting   =      3332.82914065    -3313.04331449
  entropy T*S    EENTRO =         0.00000000
  eigenvalues    EBANDS =      -105.30708900
  atomic energy  EATOM  =      2555.28521479
  free energy    TOTEN  =       -50.36840845 eV

  energy without entropy =      -50.36840845  energy(sigma->0) =      -50.36840845

 average (electrostatic) potential at core
  the test charge radii are     0.7215  1.0210
  (the norm of the test charge is              1.0000)
       1 -71.2300       2 -71.2300       3 -71.2300       4 -71.2300       5 -46.5380
       6 -46.5380

 E-fermi :   4.1258     XC(G=0): -12.2371     alpha+bet :-11.7092

 spin component 1

 k-point   1 :       0.0000    0.0000    0.0000
  band No.  band energies     occupation
      1     -15.9210      1.00000
      2     -13.9637      1.00000
      3     -13.6388      1.00000
      4     -13.5473      1.00000
      5      -3.8661      1.00000
      6      -3.0208      1.00000
      7      -2.4369      1.00000
      8      -1.7257      1.00000
      9      -1.2005      1.00000
     10      -0.0175      1.00000
     11       0.0564      1.00000
     12       0.6171      1.00000
     13       1.8881      1.00000
     14       1.9953      1.00000
     15       2.4857      1.00000
     16       2.6091      1.00000
     17       2.9702      1.00000
     18       3.0196      1.00000
     19       3.6766      1.00000
     20       3.7826      0.92425
     21       4.3565      0.00000
     22       5.2744      0.00000
     23       6.0629      0.00000
     24       7.2765      0.00000

[...]

 spin component 2

[...]

 k-point  50 :       0.5000    0.5000    0.4444
  band No.  band energies     occupation
      1     -14.0915      1.00000
      2     -14.0026      1.00000
      3     -13.9764      1.00000
      4     -13.8592      1.00000
      5      -2.7237      1.00000
      6      -2.6755      1.00000
      7      -2.6557      1.00000
      8      -2.3102      1.00000
      9      -1.4417      1.00000
     10      -0.8840      1.00000
     11      -0.5295      1.00000
     12      -0.0574      1.00000
     13       0.9036      1.00000
     14       1.8075      1.00000
     15       2.0453      1.00000
     16       2.3186      1.00000
     17       2.4886      1.00000
     18       3.4624      1.00000
     19       3.5058      1.00000
     20       5.0757      0.00000
     21       5.1777      0.00000
     22       5.5149      0.00000
     23       6.0494      0.00000
     24       6.3533      0.00000

 soft charge-density along one line, spin component           1
         0         1         2         3         4         5         6         7         8         9
 total charge-density along one line

 soft charge-density along one line, spin component           2
         0         1         2         3         4         5         6         7         8         9
 total charge-density along one line

------------------------ aborting loop because EDIFF is reached ----------------------------------------

  FORCE on cell =-STRESS in cart. coord.  units (eV):
  Direction    XX          YY          ZZ          XY          YZ          ZX
  Alpha Z   174.68625   174.68625   174.68625
  Ewald    -830.66329  -830.66329  -581.54861     0.00000     0.00000     0.00000
  Hartree   147.33192   147.33192   252.38939    -0.00000    -0.00000    -0.00000
  E(xc)    -184.58623  -184.58623  -184.82443    -0.00000    -0.00000     0.00000
  Local      73.51946    73.51946  -261.85115     0.00000    -0.00000     0.00000
  n-local  -133.39403  -133.16267  -129.14894     0.19726    -0.34283     0.08368
  augment    87.62796    87.62796    84.87466    -0.00000    -0.00000     0.00000
  Kinetic   666.38195   664.38537   645.24261    -1.32875    -0.08140    -0.97609
  Fock        0.00000     0.00000     0.00000     0.00000     0.00000     0.00000
  Total       0.02139     0.02139    -0.18021    -0.00000     0.00000     0.00000
  in kB       0.62918     0.62918    -5.30122    -0.00000     0.00000     0.00000

 VOLUME and BASIS-vectors are now :
  energy-cutoff  :      520.00
  volume of cell :       54.46
      direct lattice vectors                 reciprocal lattice vectors
     4.378352048  0.000000000  0.000000000     0.228396435  0.000000000  0.000000000
     0.000000000  4.378352048  0.000000000     0.000000000  0.228396435  0.000000000
     0.000000000  0.000000000  2.841113926     0.000000000  0.000000000  0.351974622

  length of vectors
     4.378352048  4.378352048  2.841113926     0.228396435  0.228396435  0.351974622

 FORCES acting on ions
    electron-ion (+dipol)            ewald-force                    non-local-force                 convergence-correction
   0.265E+02 0.265E+02 -.136E-04   -.296E+02 -.296E+02 -.621E-14   0.311E+01 0.311E+01 -.629E-17   0.640E-03 0.640E-03 0.421E-13
   0.265E+02 -.265E+02 0.453E-11   -.296E+02 0.296E+02 -.739E-14   0.311E+01 -.311E+01 -.413E-17   0.640E-03 -.640E-03 0.593E-13
   -.265E+02 0.265E+02 0.103E-11   0.296E+02 -.296E+02 -.770E-14   -.311E+01 0.311E+01 -.335E-17   -.640E-03 0.640E-03 0.334E-13
   -.265E+02 -.265E+02 0.136E-04   0.296E+02 0.296E+02 -.950E-14   -.311E+01 -.311E+01 -.509E-17   -.640E-03 -.640E-03 0.157E-13
   0.213E-13 0.148E-13 0.209E-12   -.448E-13 0.117E-13 0.115E-13   0.160E-22 0.225E-22 -.942E-23   -.652E-13 -.306E-13 0.119E-13
   0.117E-11 -.601E-12 -.412E-12   -.690E-13 -.827E-13 0.122E-13   -.243E-22 0.152E-22 -.825E-23   -.316E-13 -.480E-13 0.280E-13
   0.241E-11 0.687E-12 0.257E-12   0.141E-13 0.142E-13 -.710E-14   -.444E-15 0.888E-15 -.189E-16   -.227E-12 -.229E-12 0.191E-12

 POSITION                                       TOTAL-FORCE (eV/Angst)
      1.32826      1.32826      0.00000         0.010552      0.010552      0.000000
      3.51744      0.86091      1.42056         0.010552     -0.010552      0.000000
      0.86091      3.51744      1.42056        -0.010552      0.010552      0.000000
      3.05009      3.05009      0.00000        -0.010552     -0.010552      0.000000
      0.00000      0.00000      0.00000         0.000000      0.000000     -0.000000
      2.18918      2.18918      1.42056         0.000000     -0.000000     -0.000000
    total drift:                                0.000000      0.000000      0.000000

  FREE ENERGIE OF THE ION-ELECTRON SYSTEM (eV)
  free  energy   TOTEN  =       -50.36840845 eV

  energy  without entropy=      -50.36840845  energy(sigma->0) =      -50.36840845

 BZINTS: Fermi energy:  4.125806; 38.000000 electrons
         Band energy:-105.307089;  BLOECHL correction: -0.008828