 vasp.5.3.3 18Dez12 (build May 12 2016 12:04:25) complex

 executed on             LinuxIFC date 2017.03.09  11:49:12

 INCAR:
 POTCAR:    PAW_PBE Mn 06Sep2000
 POTCAR:    PAW_PBE O 08Apr2002
 POTCAR:    PAW_PBE Li 17Jan2003
 POTCAR:    PAW_PBE Mn 06Sep2000

 POTCAR:    PAW_PBE O 08Apr2002

 POTCAR:    PAW_PBE Li 17Jan2003

  PAW_PBE Mn 06Sep2000                  :
  PAW_PBE O 08Apr2002                   :
  PAW_PBE Li 17Jan2003                  :

 POSCAR:
  positions in direct lattice
  velocities in cartesian coordinates
 exchange correlation table for  LEXCH =        8
   RHO(1)=    0.500       N(1)  =     2000
   RHO(2)=  100.500       N(2)  =     4000

 ion  position               nearest neighbor table
   1  0.250  0.017  0.141-  16 1.95  16 1.95  23 1.97  23 1.97   9 2.11  25 2.51  26 2.51  20 2.51

   2  0.250  0.526  0.123-  15 1.91  15 1.91  24 1.97  24 1.97  10 1.98  19 2.02  26 2.56  25 2.83
                             5 3.15   5 3.15
   3  0.250  0.229  0.635-  11 1.90  21 1.93  21 1.93  13 1.95  13 1.95  17 2.01  28 2.82  28 2.82
                             7 3.14   7 3.14
   4  0.250  0.720  0.619-  22 1.92  22 1.92  14 1.93  14 1.93  12 1.96  18 1.98  29 2.88  29 2.88
                            27 2.97  27 2.97   8 3.08   8 3.08
   5  0.750  0.488  0.849-  19 1.95  19 1.95  12 1.97  12 1.97  13 2.18  24 2.42  27 2.72   2 3.15
                             2 3.15  28 3.19
   6  0.750  0.008  0.861-  11 1.92  11 1.92  20 1.97  20 1.97  23 2.21  27 2.59
   7  0.750  0.258  0.359-   9 1.91   9 1.91  17 2.01  17 2.01  21 2.28  15 2.32  28 2.69   3 3.14
                             3 3.14
   8  0.750  0.746  0.350-  10 1.93  10 1.93  18 2.02  18 2.02  16 2.15  22 2.21  29 2.86  26 2.96
                            26 2.96   4 3.08   4 3.08
   9  0.250  0.175  0.271-   7 1.91   7 1.91   1 2.11  25 2.19
  10  0.250  0.658  0.263-   8 1.93   8 1.93   2 1.98  26 2.05
  11  0.250  0.108  0.783-   3 1.90   6 1.92   6 1.92
  12  0.250  0.601  0.777-   4 1.96   5 1.97   5 1.97  27 2.35  27 2.35
  13  0.750  0.338  0.700-   3 1.95   3 1.95  28 1.97   5 2.18
  14  0.750  0.823  0.688-   4 1.93   4 1.93  27 1.97  29 2.00
  15  0.750  0.423  0.194-   2 1.91   2 1.91   7 2.32  25 2.61  25 2.61
  16  0.750  0.899  0.197-   1 1.95   1 1.95   8 2.15  26 2.19  26 2.19
  17  0.250  0.342  0.467-  28 1.96  28 1.96   3 2.01   7 2.01   7 2.01
  18  0.250  0.833  0.456-   4 1.98   8 2.02   8 2.02  29 2.06  29 2.06
  19  0.250  0.416  0.960-  25 1.93   5 1.95   5 1.95   2 2.02
  20  0.250  0.892  0.931-   6 1.97   6 1.97  26 1.99  27 2.12  27 2.12   1 2.51
  21  0.750  0.136  0.553-  29 1.88   3 1.93   3 1.93   7 2.28
  22  0.750  0.628  0.538-  28 1.82   4 1.92   4 1.92   8 2.21
  23  0.750  0.114  0.048-   1 1.97   1 1.97  25 2.05  25 2.05   6 2.21
  24  0.750  0.630  0.037-   2 1.97   2 1.97  27 2.04  26 2.17  26 2.17   5 2.42
  25  0.250  0.255  0.068-  19 1.93  23 2.05  23 2.05   9 2.19   1 2.51  15 2.61  15 2.61   2 2.83

  26  0.250  0.776  0.094-  20 1.99  10 2.05  24 2.17  24 2.17  16 2.19  16 2.19   1 2.51   2 2.56
                            27 2.68  27 2.68   8 2.96   8 2.96
  27  0.750  0.753  0.873-  14 1.97  24 2.04  20 2.12  20 2.12  12 2.35  12 2.35   6 2.59  26 2.68
                            26 2.68   5 2.72   4 2.97   4 2.97
  28  0.750  0.449  0.537-  22 1.82  17 1.96  17 1.96  13 1.97   7 2.69   3 2.82   3 2.82   5 3.19

  29  0.750  0.953  0.534-  21 1.88  14 2.00  18 2.06  18 2.06   8 2.86   4 2.88   4 2.88

  LATTYP: Found a simple monoclinic cell.
 ALAT       =    14.5900787053
 B/A-ratio  =     0.1977853007
 C/A-ratio  =     1.5800695907
 COS(beta)  =    -0.9522991123

  Lattice vectors:

 A1 = ( -10.2751548075,   0.0000000000, -10.3581653930)
 A2 = (   0.0000000000,  -2.8857031040,   0.0000000000)
 A3 = (  10.4664741644,   0.0000000000,  20.5404330375)

Analysis of symmetry for initial positions (statically):
 Subroutine PRICEL returns:
 Original cell was already a primitive cell.

 Routine SETGRP: Setting up the symmetry group for a
 simple monoclinic supercell.

 Subroutine GETGRP returns: Found  2 space group operations
 (whereof  1 operations were pure point group operations)
 out of a pool of  4 trial point group operations.

The static configuration has the point symmetry C_1 .
 The point group associated with its full space group is C_1h.

Analysis of symmetry for dynamics (positions and initial velocities):
 Subroutine PRICEL returns:
 Original cell was already a primitive cell.

 Routine SETGRP: Setting up the symmetry group for a
 simple monoclinic supercell.

 Subroutine GETGRP returns: Found  2 space group operations
 (whereof  1 operations were pure point group operations)
 out of a pool of  4 trial point group operations.

The dynamic configuration has the point symmetry C_1 .
 The point group associated with its full space group is C_1h.

Analysis of magnetic symmetry:

 Subroutine MAGSYM returns: Found  2 space group operations
 (whereof  1 operations were pure point group operations)
 out of a pool of  2 trial space group operations
 (whereof  1 operations were pure point group operations)
 and found also     1 'primitive' translations

The magnetic configuration has the point symmetry C_1 .
 The point group associated with its full space group is C_1h.

 irot  :   1
 isymop:   1   0   0
           0   1   0
           0   0   1

 gtrans:     0.0000000     0.0000000     0.0000000

 ptrans:     0.0000000     0.0000000     0.0000000
 rotmap:
 (   1->   1)  (   2->   2)  (   3->   3)  (   4->   4)  (   5->   5)
 (   6->   6)  (   7->   7)  (   8->   8)  (   9->   9)  (  10->  10)
 (  11->  11)  (  12->  12)  (  13->  13)  (  14->  14)  (  15->  15)
 (  16->  16)  (  17->  17)  (  18->  18)  (  19->  19)  (  20->  20)
 (  21->  21)  (  22->  22)  (  23->  23)  (  24->  24)  (  25->  25)
 (  26->  26)  (  27->  27)  (  28->  28)  (  29->  29)

 irot  :   2
 isymop:  -1   0   0
           0   1   0
           0   0   1

 gtrans:    -0.5000000     0.0000000     0.0000000

 ptrans:     0.0000000     0.0000000     0.0000000
 rotmap:
 (   1->   1)  (   2->   2)  (   3->   3)  (   4->   4)  (   5->   5)
 (   6->   6)  (   7->   7)  (   8->   8)  (   9->   9)  (  10->  10)
 (  11->  11)  (  12->  12)  (  13->  13)  (  14->  14)  (  15->  15)
 (  16->  16)  (  17->  17)  (  18->  18)  (  19->  19)  (  20->  20)
 (  21->  21)  (  22->  22)  (  23->  23)  (  24->  24)  (  25->  25)
 (  26->  26)  (  27->  27)  (  28->  28)  (  29->  29)

 KPOINTS: con1.14

Automatic generation of k-mesh.
Space group operators:
 irot       det(A)        alpha          n_x          n_y          n_z        tau_x        tau_y        tau_z
    1     1.000000     0.000000     1.000000     0.000000     0.000000     0.000000     0.000000     0.000000
    2    -1.000000   180.000000     0.000000     1.000000     0.000000    -0.500000     0.000000     0.000000

 Subroutine IBZKPT returns following result:

 Found     16 irreducible k-points:

 Following reciprocal coordinates:
            Coordinates               Weight
  0.000000  0.000000  0.000000      1.000000
  0.142857  0.000000  0.000000      2.000000
  0.285714  0.000000  0.000000      2.000000
  0.428571  0.000000  0.000000      2.000000
  0.000000  0.500000 -0.000000      1.000000
  0.142857  0.500000 -0.000000      2.000000
  0.285714  0.500000 -0.000000      2.000000
  0.428571  0.500000 -0.000000      2.000000
  0.000000  0.000000  0.500000      1.000000
  0.142857  0.000000  0.500000      2.000000
  0.285714  0.000000  0.500000      2.000000
  0.428571  0.000000  0.500000      2.000000
  0.000000  0.500000  0.500000      1.000000
  0.142857  0.500000  0.500000      2.000000
  0.285714  0.500000  0.500000      2.000000
  0.428571  0.500000  0.500000      2.000000

 Following cartesian coordinates:
            Coordinates               Weight
  0.000000  0.000000  0.000000      1.000000
  0.000000  0.049505  0.000000      2.000000
  0.000000  0.099010  0.000000      2.000000
  0.000000  0.148515  0.000000      2.000000
 -0.000857  0.000000  0.049121      1.000000
 -0.000857  0.049505  0.049121      2.000000
 -0.000857  0.099010  0.049121      2.000000
 -0.000857  0.148515  0.049121      2.000000
  0.049601  0.000000 -0.000932      1.000000
  0.049601  0.049505 -0.000932      2.000000
  0.049601  0.099010 -0.000932      2.000000
  0.049601  0.148515 -0.000932      2.000000
  0.048744  0.000000  0.048189      1.000000
  0.048744  0.049505  0.048189      2.000000
  0.048744  0.099010  0.048189      2.000000
  0.048744  0.148515  0.048189      2.000000

 TETIRR: Found     84 inequivalent tetrahedra from      168

 I would recommend the setting:
   dimension x,y,z NGX =    16 NGY =   57 NGZ =   56
 SYSTEM =  unknown system
 POSCAR =

 Startparameter for this run:
   NWRITE =      1    write-flag & timer
   PREC   = normal    normal or accurate (medium, high low for compatibility)
   ISTART =      1    job   : 0-new  1-cont  2-samecut
   ICHARG =     11    charge: 1-file 2-atom 10-const
   ISPIN  =      2    spin polarized calculation?
   LNONCOLLINEAR =      F non collinear calculations
   LSORBIT =      F    spin-orbit coupling
   INIWAV =      1    electr: 0-lowe 1-rand  2-diag
   LASPH  =      F    aspherical Exc in radial PAW
   METAGGA=      F    non-selfconsistent MetaGGA calc.

 Electronic Relaxation 1
   ENCUT  =  520.0 eV  38.22 Ry    6.18 a.u.   5.37 18.94 18.75*2*pi/ulx,y,z
   ENINI  =  520.0     initial cutoff
   ENAUG  =  605.4 eV  augmentation charge cutoff
   NELM   =     60;   NELMIN=  5; NELMDL=  0     # of ELM steps
   EDIFF  = 0.1E-04   stopping-criterion for ELM
   LREAL  =      F    real-space projection
   NLSPLINE    = F    spline interpolate recip. space projectors
   LCOMPAT=      F    compatible to vasp.4.4
   GGA_COMPAT  = T    GGA compatible to vasp.4.4-vasp.4.6
   LMAXPAW     = -100 max onsite density
   LMAXMIX     =    4 max onsite mixed and CHGCAR
   VOSKOWN=      1    Vosko Wilk Nusair interpolation
   ROPT   =    0.00000   0.00000   0.00000
 Ionic relaxation
   EDIFFG = -.2E-01   stopping-criterion for IOM
   NSW    =      0    number of steps for IOM
   NBLOCK =      1;   KBLOCK =      1    inner block; outer block
   IBRION =     -1    ionic relax: 0-MD 1-quasi-New 2-CG
   NFREE  =      0    steps in history (QN), initial steepest desc. (CG)
   ISIF   =      2    stress and relaxation
   IWAVPR =     10    prediction:  0-non 1-charg 2-wave 3-comb
   ISYM   =      2    0-nonsym 1-usesym 2-fastsym
   LCORR  =      T    Harris-Foulkes like correction to forces

   POTIM  = 0.5000    time-step for ionic-motion
   TEIN   =    0.0    initial temperature
   TEBEG  =    0.0;   TEEND  =   0.0 temperature during run
   SMASS  =  -3.00    Nose mass-parameter (am)
   estimated Nose-frequenzy (Omega)   =  0.10E-29 period in steps =****** mass=  -0.190E-27a.u.
   SCALEE = 1.0000    scale energy and forces
   NPACO  =    256;   APACO  = 16.0  distance and # of slots for P.C.
   PSTRESS=    0.0 pullay stress

  Mass of Ions in am
   POMASS =  54.94 16.00  7.01
  Ionic Valenz
   ZVAL   =   7.00  6.00  1.00
  Atomic Wigner-Seitz radii
  virtual crystal weights
   VCA    =   1.00  1.00  1.00
[...]
      4     -15.6055      1.00000
      5     -15.1803      1.00000
      6     -15.0333      1.00000
      7     -15.0310      1.00000
      8     -14.9755      1.00000
      9     -14.7523      1.00000
     10     -14.6678      1.00000
     11     -14.5209      1.00000
     12     -14.4470      1.00000
     13     -14.3314      1.00000
     14     -14.2526      1.00000
     15     -14.2156      1.00000
     16     -14.0194      1.00000
     17      -4.3215      1.00000
     18      -4.0286      1.00000
     19      -3.8241      1.00000
     20      -3.5642      1.00000
     21      -3.1874      1.00000
     22      -3.0277      1.00000
     23      -2.8157      1.00000
     24      -2.7321      1.00000
     25      -2.4633      1.00000
     26      -2.3746      1.00000
     27      -2.3624      1.00000
     28      -2.3006      1.00000
     29      -2.2581      1.00000
     30      -2.2064      1.00000
     31      -2.1840      1.00000
     32      -2.0704      1.00000
     33      -1.8493      1.00000
     34      -1.7661      1.00000
     35      -1.6519      1.00000
     36      -1.6204      1.00000
     37      -1.5598      1.00000
     38      -1.4257      1.00000
     39      -1.3190      1.00000
     40      -1.2764      1.00000
     41      -1.2374      1.00000
     42      -1.1983      1.00000
     43      -1.0575      1.00000
     44      -1.0313      1.00000
     45      -0.9625      1.00000
     46      -0.7501      1.00000
     47      -0.7166      1.00000
     48      -0.6634      1.00000
     49      -0.4922      1.00000
     50      -0.4313      1.00000
     51      -0.3791      1.00000
     52      -0.1850      1.00000
     53       0.0101      1.00000
     54       0.0825      1.00000
     55       0.0850      1.00000
     56       0.1918      1.00000
     57       0.2701      1.00000
     58       0.4386      1.00000
     59       0.5209      1.00000
     60       0.5265      1.00000
[...]
     82       4.8912      0.00000
     83       4.9312      0.00000
     84       4.9759      0.00000
     85       5.0019      0.00000
     86       5.0094      0.00000
     87       5.3215      0.00000
     88       5.5195      0.00000
     89       5.6090      0.00000
     90       5.9412      0.00000
     91       5.9517      0.00000
     92       6.0443      0.00000
     93       6.2348      0.00000
     94       6.4727      0.00000
     95       6.4981      0.00000
     96       6.6917      0.00000

[...]

 spin component 2

[...]

 k-point  16 :       0.4286    0.5000    0.5000
  band No.  band energies     occupation
      1     -15.1741      1.00000
      2     -15.1201      1.00000
      3     -14.9718      1.00000
      4     -14.9183      1.00000
      5     -14.8704      1.00000
      6     -14.7268      1.00000
      7     -14.6071      1.00000
      8     -14.5279      1.00000
      9     -14.4538      1.00000
     10     -14.3984      1.00000
     11     -14.3766      1.00000
     12     -14.3194      1.00000
     13     -14.2651      1.00000
     14     -14.2523      1.00000
     15     -14.1584      1.00000
     16     -14.0995      1.00000
     17      -4.3314      1.00000
     18      -3.9687      1.00000
     19      -3.5641      1.00000
     20      -3.2711      1.00000
     21      -3.1592      1.00000
     22      -3.1011      1.00000
     23      -2.9960      1.00000
     24      -2.9434      1.00000
     25      -2.8697      1.00000
     26      -2.7236      1.00000
     27      -2.4974      1.00000
     28      -2.4322      1.00000
     29      -2.3941      1.00000
     30      -2.2865      1.00000
     31      -2.2164      1.00000
     32      -2.0345      1.00000
     33      -1.9764      1.00000
     34      -1.8564      1.00000
     35      -1.8333      1.00000
     36      -1.7398      1.00000
     37      -1.6605      1.00000
     38      -1.5767      1.00000
     39      -1.5544      1.00000
     40      -1.4183      1.00000
     41      -1.3756      1.00000
     42      -1.2997      1.00000
     43      -1.2354      1.00000
     44      -1.1758      1.00000
     45      -1.1512      1.00000
     46      -1.0405      1.00000
     47      -0.9065      1.00000
     48      -0.8759      1.00000
     49      -0.7580      1.00000
     50      -0.7440      1.00000
     51      -0.6355      1.00000
     52      -0.4968      1.00000
     53      -0.4455      1.00000
     54      -0.4168      1.00000
     55      -0.3488      1.00000
     56      -0.3088      1.00000
     57      -0.2264      1.00000
     58      -0.0955      1.00000
     59      -0.0196      1.00000
     60       0.0130      1.00000
[...]
     82       4.2607      0.00000
     83       4.3490      0.00000
     84       4.4323      0.00000
     85       5.5503      0.00000
     86       5.6995      0.00000
     87       5.9435      0.00000
     88       6.1058      0.00000
     89       6.1924      0.00000
     90       6.2801      0.00000
     91       6.3557      0.00000
     92       6.4463      0.00000
     93       6.6319      0.00000
     94       6.6887      0.00000
     95       6.7592      0.00000
     96       6.7948      0.00000

 soft charge-density along one line, spin component           1
         0         1         2         3         4         5         6         7         8         9
 total charge-density along one line

 soft charge-density along one line, spin component           2
         0         1         2         3         4         5         6         7         8         9
 total charge-density along one line

------------------------ aborting loop because EDIFF is reached ----------------------------------------

 total charge

# of ion     s       p       d       tot
  1        0.302   0.416   4.825   5.542
  2        0.332   0.506   4.780   5.618
  3        0.339   0.523   4.773   5.635
  4        0.345   0.537   4.792   5.674
  5        0.291   0.394   4.801   5.486
  6        0.300   0.407   4.811   5.519
  7        0.293   0.394   4.818   5.504
  8        0.289   0.400   4.820   5.509
  9        1.566   3.455   0.000   5.020
 10        1.563   3.471   0.000   5.034
 11        1.560   3.475   0.000   5.036
 12        1.558   3.463   0.000   5.021
 13        1.564   3.436   0.000   5.000
 14        1.569   3.440   0.000   5.008
 15        1.569   3.409   0.000   4.978
 16        1.556   3.465   0.000   5.021
 17        1.560   3.475   0.000   5.035
 18        1.563   3.455   0.000   5.019
 19        1.566   3.458   0.000   5.024
 20        1.556   3.462   0.000   5.018
 21        1.569   3.444   0.000   5.013
 22        1.569   3.465   0.000   5.035
 23        1.560   3.458   0.000   5.019
 24        1.562   3.442   0.000   5.005
 25        0.090   0.183   0.000   0.273
 26        0.099   0.209   0.000   0.308
 27        0.095   0.198   0.000   0.293
 28        0.123   0.259   0.000   0.382
 29        0.100   0.203   0.000   0.303
tot       28.008  59.900  38.421 126.329

 magnetization (x)

[...]

  FORCE on cell =-STRESS in cart. coord.  units (eV):
  Direction    XX          YY          ZZ          XY          YZ          ZX
  Alpha Z   537.78485   537.78485   537.78485
  Ewald   -2680.60519 -1349.07721 -3751.58224    -0.00000     0.00000  -154.02932
  Hartree  1119.47255  1842.17890   225.12162    -0.00000    -0.00000   -85.33762
  E(xc)    -764.35102  -764.94178  -765.17673    -0.00000     0.00000     0.01792
  Local    -716.93412 -2702.43039  1258.93737    -0.00000     0.00000   235.04413
  n-local  -532.48017  -509.78763  -528.39173    -0.00003     0.00005    -1.97132
  augment   360.82771   348.45574   359.38533    -0.00000    -0.00000     1.22810
  Kinetic  2676.43894  2597.62653  2664.22765     0.00032    -0.00018     5.06638
  Fock        0.00000     0.00000     0.00000     0.00000     0.00000     0.00000
  Total       0.15356    -0.19100     0.30611     0.00000     0.00000     0.01829
  in kB       0.83063    -1.03314     1.65582     0.00000     0.00000     0.09892

 VOLUME and BASIS-vectors are now :
  energy-cutoff  :      520.00
  volume of cell :      296.20
      direct lattice vectors                 reciprocal lattice vectors
     0.000000000  2.885703104  0.000000000     0.000000000  0.346535996  0.000000000
     0.191319357  0.000000000 10.182267645    -0.001713690  0.000000000  0.098242150
    10.083835451  0.000000000  0.175897748     0.099201129  0.000000000 -0.001863936

  length of vectors
     2.885703104 10.184064880 10.085369473     0.346535996  0.098257095  0.099218639

 FORCES acting on ions
    electron-ion (+dipol)            ewald-force                    non-local-force                 convergence-correction
   -.642E+02 0.982E-15 -.120E+02   0.644E+02 0.255E-13 0.125E+02   -.227E+00 0.331E-22 -.815E+00   -.109E-01 0.205E-13 0.296E+00
   -.494E+02 0.174E-14 0.278E+02   0.500E+02 -.187E-13 -.282E+02   -.473E+00 -.521E-22 0.709E+00   -.822E-01 0.330E-13 -.284E+00
   -.288E+02 0.995E-14 0.185E+02   0.297E+02 0.515E-14 -.192E+02   -.741E+00 0.594E-21 0.747E+00   -.125E+00 0.225E-12 -.301E-01
   -.362E+02 -.311E-15 -.207E+02   0.361E+02 -.913E-14 0.204E+02   -.468E-01 -.264E-21 0.156E+00   0.163E+00 0.618E-13 0.261E-01
   0.497E+02 0.494E-13 0.671E+02   -.490E+02 -.911E-14 -.672E+02   -.643E+00 0.429E-21 0.316E+00   -.838E-01 -.147E-13 -.144E+00
   0.397E+02 0.403E-13 0.115E+02   -.387E+02 -.241E-15 -.103E+02   -.967E+00 0.653E-21 -.127E+01   0.489E-02 0.800E-13 0.838E-01
   0.463E+02 0.494E-13 0.553E+01   -.472E+02 0.154E-13 -.728E+01   0.882E+00 -.305E-22 0.192E+01   -.779E-03 -.295E-13 -.166E+00
   0.172E+02 0.515E-13 -.364E+02   -.180E+02 0.240E-13 0.360E+02   0.692E+00 -.688E-22 0.301E+00   0.110E+00 -.109E-12 0.151E+00
   0.268E+02 0.594E-13 0.703E+02   -.340E+02 -.363E-13 -.783E+02   0.713E+01 -.539E-21 0.802E+01   0.282E-01 0.603E-13 -.503E-03
   -.139E+02 0.546E-13 0.469E+02   0.133E+02 -.359E-13 -.526E+02   0.713E+00 -.113E-21 0.595E+01   -.991E-01 0.365E-13 -.199E+00
   -.186E+02 0.743E-13 -.279E+02   0.204E+02 0.185E-13 0.339E+02   -.180E+01 0.221E-21 -.611E+01   -.749E-01 -.533E-13 0.984E-01
   -.694E+01 0.571E-13 -.374E+02   0.834E+01 0.131E-13 0.427E+02   -.142E+01 -.196E-22 -.531E+01   0.776E-02 -.108E-13 -.223E-01
   -.644E+02 0.146E-12 -.789E+02   0.726E+02 -.198E-13 0.864E+02   -.815E+01 -.616E-21 -.744E+01   -.391E-01 0.184E-13 -.615E-01
   -.691E+02 0.152E-12 -.165E+03   0.778E+02 0.112E-13 0.178E+03   -.889E+01 -.199E-21 -.132E+02   0.132E+00 -.119E-12 0.169E+00
   -.855E+02 0.138E-12 0.124E+03   0.937E+02 0.277E-14 -.136E+03   -.843E+01 -.153E-20 0.123E+02   0.151E+00 -.624E-13 -.442E+00
   -.407E+02 0.162E-12 0.209E+02   0.444E+02 -.151E-13 -.296E+02   -.358E+01 -.103E-21 0.837E+01   -.174E+00 -.550E-13 0.360E+00
   0.287E+02 0.452E-13 -.169E+03   -.286E+02 0.572E-14 0.181E+03   -.832E-01 0.208E-21 -.122E+02   -.226E-01 -.100E-13 -.239E+00
   0.107E+02 0.547E-13 -.239E+03   -.119E+02 -.665E-14 0.253E+03   0.869E+00 0.348E-21 -.137E+02   0.262E+00 0.177E-12 0.337E+00
   -.136E+02 0.751E-13 0.213E+03   0.172E+02 0.124E-13 -.227E+03   -.350E+01 -.235E-20 0.140E+02   -.682E-01 -.848E-13 -.152E+00
   -.233E+02 0.657E-13 0.134E+03   0.284E+02 -.152E-13 -.144E+03   -.514E+01 0.324E-21 0.986E+01   0.102E-01 -.560E-14 0.911E-01
   0.906E+02 0.156E-12 0.225E+03   -.983E+02 0.826E-15 -.236E+03   0.789E+01 0.587E-21 0.112E+02   -.180E+00 -.121E-11 0.113E+00
   0.702E+02 0.150E-12 0.201E+03   -.782E+02 -.797E-14 -.212E+03   0.787E+01 -.479E-22 0.119E+02   0.157E+00 -.997E-13 -.233E+00
   0.454E+02 0.135E-12 -.169E+03   -.530E+02 -.258E-14 0.180E+03   0.758E+01 -.488E-21 -.115E+02   0.296E-01 0.454E-13 0.107E+00
   0.672E+02 0.148E-12 -.172E+03   -.740E+02 0.269E-13 0.182E+03   0.703E+01 0.963E-22 -.974E+01   -.230E+00 -.494E-13 0.247E-01
   0.682E+01 -.384E-14 -.214E+01   -.716E+01 -.210E-14 0.194E+01   0.320E+00 -.239E-21 0.221E+00   0.130E-01 -.825E-16 -.170E-01
   0.104E+02 0.152E-14 -.525E+01   -.104E+02 -.184E-14 0.535E+01   0.171E-01 0.186E-22 -.128E+00   -.289E-01 -.353E-15 0.230E-01
   -.896E+01 -.736E-15 -.273E+01   0.871E+01 -.257E-14 0.322E+01   0.249E+00 0.201E-22 -.514E+00   -.495E-02 0.118E-15 0.115E-01
   0.856E+01 -.190E-14 -.125E+02   -.826E+01 0.535E-15 0.127E+02   -.293E+00 0.279E-22 -.131E+00   0.611E-02 -.310E-15 -.401E-01
   0.900E+01 0.104E-14 -.176E+02   -.845E+01 0.170E-14 0.178E+02   -.562E+00 -.878E-22 -.221E+00   0.918E-02 -.516E-16 0.423E-01
   0.385E+01 0.187E-11 -.348E+01   -.959E-13 -.196E-13 -.355E-13   -.371E+01 -.319E-20 0.357E+01   -.139E+00 -.115E-11 -.971E-01

 POSITION                                       TOTAL-FORCE (eV/Angst)
      1.42663      0.72143      0.19969        -0.011992     -0.000000     -0.016118
      1.33850      0.72143      5.37400         0.008049     -0.000000      0.013693
      6.44501      0.72143      2.44112        -0.024783     -0.000000      0.023732
      6.37940      0.72143      7.43911        -0.022859     -0.000000     -0.024740
      8.65796      2.16428      5.11600         0.000364     -0.000000      0.002144
      8.68171      2.16428      0.22848         0.006537      0.000000      0.011747
      3.67168      2.16428      2.69411        -0.009809     -0.000000      0.004095
      3.66831      2.16428      7.65982         0.013698     -0.000000      0.023264
      2.77046      0.72143      1.82631         0.005881     -0.000000      0.002541
      2.77413      0.72143      6.74239        -0.025355     -0.000000     -0.009371
      7.91998      0.72143      1.23710         0.003322     -0.000000     -0.020998
      7.94735      0.72143      6.25576        -0.006490     -0.000000     -0.002806
      7.12784      2.16428      3.56258         0.015793      0.000000      0.002668
      7.09438      2.16428      8.50222         0.011660     -0.000000      0.003288
      2.03744      2.16428      4.34335        -0.005126      0.000000      0.010505
      2.15889      2.16428      9.18498         0.003094     -0.000000      0.018873
      4.77399      0.72143      3.56133        -0.005976     -0.000000     -0.012682
      4.75705      0.72143      8.56553         0.010005     -0.000000      0.002681
      9.76489      0.72143      4.40286        -0.001524     -0.000000     -0.028589
      9.55521      0.72143      9.24781         0.000575     -0.000000      0.019171
      5.60010      2.16428      1.47909         0.009612      0.000000     -0.018082
      5.54206      2.16428      6.49102         0.011033     -0.000000     -0.006450
      0.50741      2.16428      1.16786         0.001974     -0.000000      0.001107
      0.49326      2.16428      6.42049         0.004570     -0.000000     -0.005460
      0.72961      0.72143      2.61050        -0.006105     -0.000000      0.007245
      1.09857      0.72143      7.92232         0.012962     -0.000000     -0.005754
      8.94440      2.16428      7.82016        -0.001718     -0.000000     -0.007211
      5.49690      2.16428      4.66864         0.007341     -0.000000      0.015404
      5.57052      2.16428      9.79716        -0.004730     -0.000000     -0.003896
    total drift:                               -0.001881      0.000000     -0.007597

  FREE ENERGIE OF THE ION-ELECTRON SYSTEM (eV)
  free  energy   TOTEN  =      -195.09746548 eV

  energy  without entropy=     -195.09746548  energy(sigma->0) =     -195.09746548

 writing wavefunctions

 total charge

[...]

 magnetization (x)

# of ion     s       p       d       tot
  1        0.035   0.031   3.738   3.805
  2       -0.023  -0.029  -3.185  -3.237
  3        0.024   0.035   3.172   3.231
  4       -0.024  -0.035  -3.167  -3.226
  5        0.031   0.029   3.796   3.856
  6       -0.036  -0.031  -3.763  -3.830
  7        0.039   0.030   3.854   3.924
  8       -0.029  -0.028  -3.825  -3.882
  9        0.007  -0.053   0.000  -0.047
 10       -0.000   0.096   0.000   0.096
 11        0.000   0.005   0.000   0.005
 12        0.000  -0.015   0.000  -0.015
 13        0.006  -0.040   0.000  -0.034
 14       -0.004   0.064   0.000   0.060
 15        0.005   0.055   0.000   0.060
 16       -0.006  -0.056   0.000  -0.062
 17       -0.000  -0.093   0.000  -0.093
 18       -0.001   0.104   0.000   0.103
 19       -0.000  -0.006   0.000  -0.007
 20        0.003   0.066   0.000   0.070
 21        0.005  -0.044   0.000  -0.039
 22       -0.005   0.031   0.000   0.025
 23       -0.004  -0.105   0.000  -0.109
 24        0.003   0.104   0.000   0.107
 25        0.000   0.000   0.000   0.001
 26       -0.001   0.000   0.000  -0.001
 27       -0.001  -0.000   0.000  -0.001
 28        0.000  -0.004   0.000  -0.004
 29       -0.000   0.002   0.000   0.002
tot        0.023   0.114   0.620   0.757

 BZINTS: Fermi energy:  2.976740;157.000000 electrons
         Band energy:-565.558755;  BLOECHL correction: -0.005668