 vasp.5.3.3 18Dez12 (build May 12 2016 12:04:25) complex

 executed on             LinuxIFC date 2019.06.08  13:50:53

 INCAR:
 POTCAR:    PAW_PBE O 08Apr2002
 POTCAR:    PAW_PBE Mn 06Sep2000
 POTCAR:    PAW_PBE O 08Apr2002

 POTCAR:    PAW_PBE Mn 06Sep2000

  PAW_PBE O 08Apr2002                   :
  PAW_PBE Mn 06Sep2000                  :

 POSCAR: (Mn O2)8  (I4/m) ~  (Pearson #1102438)_1
  positions in direct lattice
  velocities in cartesian coordinates
 exchange correlation table for  LEXCH =       14
   RHO(1)=    0.500       N(1)  =     2000
   RHO(2)=  100.500       N(2)  =     4000

 ion  position               nearest neighbor table
   1  0.639  0.844  0.795-  10 1.91  10 1.91   9 1.92
   2  0.361  0.156  0.205-   9 1.91   9 1.91  10 1.92
   3  0.048  0.203  0.845-  12 1.91  12 1.91  11 1.92
   4  0.952  0.797  0.155-  11 1.91  11 1.91  12 1.92
   5  0.380  0.838  0.542-  10 1.89  10 1.89  12 1.89
   6  0.620  0.162  0.458-   9 1.89   9 1.89  11 1.89
   7  0.291  0.457  0.833-  12 1.89  12 1.89   9 1.90
   8  0.709  0.543  0.167-  11 1.89  11 1.89  10 1.90
   9  0.485  0.652  0.834-   6 1.89   6 1.89   7 1.90   2 1.91   2 1.91   1 1.92  10 2.90  10 2.90

  10  0.515  0.348  0.166-   5 1.89   5 1.89   8 1.90   1 1.91   1 1.91   2 1.92   9 2.90   9 2.90

[...]

  12  0.181  0.833  0.348-   7 1.89   7 1.89   5 1.89   3 1.91   3 1.91   4 1.92  11 2.89  11 2.89

  LATTYP: Found a base centered monoclinic cell.
 ALAT       =    13.8618402552
 B/A-ratio  =     0.2075104477
 C/A-ratio  =     0.7049345210
 COS(beta)  =    -0.6940536832

  Lattice vectors:

 A1 = (   4.8993619022,   4.9024388590,   1.4382383389)
 A2 = (   4.8993619022,   4.9024388590,  -1.4382383389)
 A3 = (  -9.7716523085,  -0.0270399854,   0.0000000000)

Analysis of symmetry for initial positions (statically):
 Subroutine PRICEL returns:
 Original cell was already a primitive cell.

 Routine SETGRP: Setting up the symmetry group for a
 base centered monoclinic supercell.

 Subroutine GETGRP returns: Found  4 space group operations
 (whereof  4 operations were pure point group operations)
 out of a pool of  4 trial point group operations.

The static configuration has the point symmetry C_2h.

Analysis of symmetry for dynamics (positions and initial velocities):
 Subroutine PRICEL returns:
 Original cell was already a primitive cell.

 Routine SETGRP: Setting up the symmetry group for a
 base centered monoclinic supercell.

 Subroutine GETGRP returns: Found  4 space group operations
 (whereof  4 operations were pure point group operations)
 out of a pool of  4 trial point group operations.

The dynamic configuration has the point symmetry C_2h.

Analysis of magnetic symmetry:

 Subroutine MAGSYM returns: Found  4 space group operations
 (whereof  4 operations were pure point group operations)
 out of a pool of  4 trial space group operations
 (whereof  4 operations were pure point group operations)
 and found also     1 'primitive' translations

The magnetic configuration has the point symmetry C_2h.

 irot  :   1
 isymop:   1   0   0
           0   1   0
           0   0   1

 gtrans:     0.0000000     0.0000000     0.0000000

 ptrans:     0.0000000     0.0000000     0.0000000
 rotmap:
 (   1->   1)  (   2->   2)  (   3->   3)  (   4->   4)  (   5->   5)
 (   6->   6)  (   7->   7)  (   8->   8)  (   9->   9)  (  10->  10)
 (  11->  11)  (  12->  12)

[...]

 irot  :   4
 isymop:   1   0   0
           1   0  -1
           1  -1   0

 gtrans:     0.0000000     0.0000000     0.0000000

 ptrans:     0.0000000     0.0000000     0.0000000
 rotmap:
 (   1->   1)  (   2->   2)  (   3->   3)  (   4->   4)  (   5->   5)
 (   6->   6)  (   7->   7)  (   8->   8)  (   9->   9)  (  10->  10)
 (  11->  11)  (  12->  12)

 KPOINTS: Automatic mesh

Automatic generation of k-mesh.
Space group operators:
 irot       det(A)        alpha          n_x          n_y          n_z        tau_x        tau_y        tau_z
    1     1.000000     0.000001     1.000000     0.000000     0.000000     0.000000     0.000000     0.000000
    2    -1.000000     0.000001     1.000000     0.000000     0.000000     0.000000     0.000000     0.000000
    3     1.000000   180.000000     0.000000    -0.000000    -1.000000     0.000000     0.000000     0.000000
    4    -1.000000   180.000000     0.000000    -0.000000    -1.000000     0.000000     0.000000     0.000000

 Subroutine IBZKPT returns following result:

 Found    282 irreducible k-points:

 Following reciprocal coordinates:
            Coordinates               Weight
  0.000000  0.000000  0.000000      1.000000
  0.100000  0.000000 -0.000000      2.000000
  0.200000  0.000000 -0.000000      2.000000
  0.300000  0.000000 -0.000000      2.000000
  0.400000  0.000000 -0.000000      2.000000
  0.500000  0.000000 -0.000000      1.000000
 -0.000000  0.100000  0.000000      4.000000
  0.100000  0.100000 -0.000000      4.000000
  0.200000  0.100000  0.000000      4.000000
  0.300000  0.100000 -0.000000      4.000000
  0.400000  0.100000 -0.000000      4.000000
  0.500000  0.100000 -0.000000      4.000000
 -0.400000  0.100000  0.000000      4.000000
 -0.300000  0.100000  0.000000      4.000000
 -0.200000  0.100000 -0.000000      4.000000
 -0.100000  0.100000  0.000000      4.000000
 -0.000000  0.200000 -0.000000      4.000000
  0.100000  0.200000 -0.000000      4.000000
  0.200000  0.200000 -0.000000      4.000000
  0.300000  0.200000 -0.000000      4.000000
  0.400000  0.200000 -0.000000      4.000000
  0.500000  0.200000 -0.000000      4.000000
 -0.400000  0.200000 -0.000000      4.000000
 -0.300000  0.200000  0.000000      4.000000
 -0.200000  0.200000 -0.000000      4.000000
 -0.100000  0.200000 -0.000000      4.000000
 -0.000000  0.300000  0.000000      4.000000
  0.100000  0.300000 -0.000000      4.000000
  0.200000  0.300000  0.000000      4.000000
  0.300000  0.300000 -0.000000      4.000000
  0.400000  0.300000 -0.000000      4.000000
  0.500000  0.300000 -0.000000      4.000000
 -0.400000  0.300000  0.000000      4.000000
 -0.300000  0.300000  0.000000      4.000000
 -0.200000  0.300000  0.000000      4.000000
 -0.100000  0.300000  0.000000      4.000000
 -0.000000  0.400000 -0.000000      4.000000
  0.100000  0.400000 -0.000000      4.000000
  0.200000  0.400000 -0.000000      4.000000
  0.300000  0.400000 -0.000000      4.000000
  0.400000  0.400000 -0.000000      4.000000
  0.500000  0.400000 -0.000000      4.000000
 -0.400000  0.400000 -0.000000      4.000000
 -0.300000  0.400000  0.000000      4.000000
 -0.200000  0.400000 -0.000000      4.000000
 -0.100000  0.400000 -0.000000      4.000000
 -0.000000  0.500000 -0.000000      2.000000
  0.100000  0.500000 -0.000000      4.000000
  0.200000  0.500000  0.000000      4.000000
  0.300000  0.500000 -0.000000      4.000000
  0.400000  0.500000 -0.000000      4.000000
  0.500000  0.500000 -0.000000      2.000000
 -0.000000  0.100000  0.100000      4.000000
  0.100000  0.100000  0.100000      4.000000
  0.200000  0.100000  0.100000      4.000000
  0.300000  0.100000  0.100000      4.000000
  0.400000  0.100000  0.100000      2.000000
 -0.100000  0.100000  0.100000      2.000000
 -0.000000  0.200000  0.100000      4.000000
  0.100000  0.200000  0.100000      4.000000
[...]
  0.100000 -0.400000  0.400000      2.000000
  0.200000 -0.400000  0.400000      2.000000
  0.300000 -0.400000  0.400000      2.000000
  0.400000 -0.400000  0.400000      2.000000
  0.500000 -0.400000  0.400000      2.000000
 -0.400000 -0.400000  0.400000      2.000000
 -0.300000 -0.400000  0.400000      2.000000
 -0.200000 -0.400000  0.400000      2.000000
 -0.100000 -0.400000  0.400000      2.000000
 -0.000000  0.500000  0.500000      1.000000
  0.100000  0.500000  0.500000      2.000000
  0.200000  0.500000  0.500000      2.000000
  0.300000  0.500000  0.500000      2.000000
  0.400000  0.500000  0.500000      2.000000
  0.500000  0.500000  0.500000      1.000000

 Following cartesian coordinates:
            Coordinates               Weight
  0.000000  0.000000  0.000000      1.000000
 -0.010205 -0.010199  0.000000      2.000000
 -0.020411 -0.020398  0.000000      2.000000
 -0.030616 -0.030597  0.000000      2.000000
 -0.040822 -0.040796  0.000000      2.000000
 -0.051027 -0.050995  0.000000      1.000000
 -0.010234  0.000028 -0.034765      4.000000
 -0.020439 -0.010171 -0.034765      4.000000
 -0.030645 -0.020370 -0.034765      4.000000
 -0.040850 -0.030569 -0.034765      4.000000
 -0.051056 -0.040767 -0.034765      4.000000
 -0.061261 -0.050966 -0.034765      4.000000
  0.030588  0.040824 -0.034765      4.000000
  0.020383  0.030625 -0.034765      4.000000
  0.010177  0.020426 -0.034765      4.000000
 -0.000028  0.010227 -0.034765      4.000000
 -0.020468  0.000057 -0.069530      4.000000
 -0.030673 -0.010142 -0.069530      4.000000
 -0.040878 -0.020341 -0.069530      4.000000
 -0.051084 -0.030540 -0.069530      4.000000
 -0.061289 -0.040739 -0.069530      4.000000
 -0.071495 -0.050938 -0.069530      4.000000
  0.020354  0.040852 -0.069530      4.000000
  0.010149  0.030654 -0.069530      4.000000
 -0.000057  0.020455 -0.069530      4.000000
 -0.010262  0.010256 -0.069530      4.000000
 -0.030701  0.000085 -0.104294      4.000000
 -0.040907 -0.010114 -0.104294      4.000000
 -0.051112 -0.020313 -0.104294      4.000000
 -0.061318 -0.030512 -0.104294      4.000000
 -0.071523 -0.040711 -0.104294      4.000000
 -0.081729 -0.050910 -0.104294      4.000000
  0.010121  0.040881 -0.104294      4.000000
 -0.000085  0.030682 -0.104294      4.000000
 -0.010290  0.020483 -0.104294      4.000000
 -0.020496  0.010284 -0.104294      4.000000
 -0.040935  0.000113 -0.139059      4.000000
 -0.051141 -0.010086 -0.139059      4.000000
 -0.061346 -0.020285 -0.139059      4.000000
 -0.071551 -0.030484 -0.139059      4.000000
 -0.081757 -0.040682 -0.139059      4.000000
 -0.091962 -0.050881 -0.139059      4.000000
 -0.000113  0.040909 -0.139059      4.000000
 -0.010319  0.030710 -0.139059      4.000000
 -0.020524  0.020511 -0.139059      4.000000
 -0.030730  0.010312 -0.139059      4.000000
 -0.051169  0.000142 -0.173824      2.000000
 -0.061374 -0.010057 -0.173824      4.000000
 -0.071580 -0.020256 -0.173824      4.000000
 -0.081785 -0.030455 -0.173824      4.000000
 -0.091991 -0.040654 -0.173824      4.000000
 -0.102196 -0.050853 -0.173824      2.000000
 -0.010205 -0.010199 -0.069530      4.000000
 -0.020411 -0.020398 -0.069530      4.000000
 -0.030616 -0.030597 -0.069530      4.000000
 -0.040822 -0.040796 -0.069530      4.000000
 -0.051027 -0.050995 -0.069530      2.000000
  0.000000  0.000000 -0.069530      2.000000
 -0.020439 -0.010171 -0.104294      4.000000
 -0.030645 -0.020370 -0.104294      4.000000
[...]
  0.030843 -0.051221  0.000000      2.000000
  0.020637 -0.061420  0.000000      2.000000
  0.010432 -0.071619 -0.000000      2.000000
  0.000226 -0.081818  0.000000      2.000000
 -0.009979 -0.092017  0.000000      2.000000
  0.081870 -0.000227  0.000000      2.000000
  0.071665 -0.010426 -0.000000      2.000000
  0.061459 -0.020625  0.000000      2.000000
  0.051254 -0.030824  0.000000      2.000000
 -0.051027 -0.050995 -0.347648      1.000000
[...]
 k-point ** :   0.1000-0.1000 0.1000  plane waves:    3691
 k-point ** :   0.2000-0.1000 0.1000  plane waves:    3698
 k-point ** :   0.3000-0.1000 0.1000  plane waves:    3701
 k-point ** :   0.4000-0.1000 0.1000  plane waves:    3712
 k-point ** :   0.5000-0.1000 0.1000  plane waves:    3722
 k-point ** :  -0.4000-0.1000 0.1000  plane waves:    3714
 k-point ** :  -0.3000-0.1000 0.1000  plane waves:    3699
 k-point ** :  -0.2000-0.1000 0.1000  plane waves:    3698
 k-point ** :  -0.1000-0.1000 0.1000  plane waves:    3693
 k-point ** :  -0.0000 0.2000 0.2000  plane waves:    3703
 k-point ** :   0.1000 0.2000 0.2000  plane waves:    3692
 k-point ** :   0.2000 0.2000 0.2000  plane waves:    3682
 k-point ** :   0.3000 0.2000 0.2000  plane waves:    3670
 k-point ** :  -0.3000 0.2000 0.2000  plane waves:    3701
 k-point ** :  -0.2000 0.2000 0.2000  plane waves:    3727
 k-point ** :  -0.0000 0.3000 0.2000  plane waves:    3699
 k-point ** :   0.1000 0.3000 0.2000  plane waves:    3697
 k-point ** :   0.2000 0.3000 0.2000  plane waves:    3698
 k-point ** :   0.3000 0.3000 0.2000  plane waves:    3696
 k-point ** :   0.4000 0.3000 0.2000  plane waves:    3694
 k-point ** :   0.5000 0.3000 0.2000  plane waves:    3697
 k-point ** :  -0.4000 0.3000 0.2000  plane waves:    3689
 k-point ** :  -0.3000 0.3000 0.2000  plane waves:    3683
 k-point ** :  -0.2000 0.3000 0.2000  plane waves:    3683
 k-point ** :  -0.1000 0.3000 0.2000  plane waves:    3691
 k-point ** :  -0.0000 0.4000 0.2000  plane waves:    3693
 k-point ** :   0.1000 0.4000 0.2000  plane waves:    3687
 k-point ** :   0.2000 0.4000 0.2000  plane waves:    3687
 k-point ** :   0.3000 0.4000 0.2000  plane waves:    3688
 k-point ** :   0.4000 0.4000 0.2000  plane waves:    3693
[...]
 k-point ** :   0.1000-0.4000 0.4000  plane waves:    3722
 k-point ** :   0.2000-0.4000 0.4000  plane waves:    3718
 k-point ** :   0.3000-0.4000 0.4000  plane waves:    3723
 k-point ** :   0.4000-0.4000 0.4000  plane waves:    3713
 k-point ** :   0.5000-0.4000 0.4000  plane waves:    3706
 k-point ** :  -0.4000-0.4000 0.4000  plane waves:    3715
 k-point ** :  -0.3000-0.4000 0.4000  plane waves:    3723
 k-point ** :  -0.2000-0.4000 0.4000  plane waves:    3718
 k-point ** :  -0.1000-0.4000 0.4000  plane waves:    3722
 k-point ** :  -0.0000 0.5000 0.5000  plane waves:    3738
 k-point ** :   0.1000 0.5000 0.5000  plane waves:    3730
 k-point ** :   0.2000 0.5000 0.5000  plane waves:    3704
 k-point ** :   0.3000 0.5000 0.5000  plane waves:    3704
 k-point ** :   0.4000 0.5000 0.5000  plane waves:    3710
 k-point ** :   0.5000 0.5000 0.5000  plane waves:    3730

 maximum and minimum number of plane-waves per node :       967      882

 maximum number of plane-waves:      3738
 maximum index in each direction:
   IXMAX=   13   IYMAX=   13   IZMAX=   13
   IXMIN=  -13   IYMIN=  -13   IZMIN=  -13

 WARNING: aliasing errors must be expected set NGX to  54 to avoid them
 WARNING: aliasing errors must be expected set NGY to  54 to avoid them
 WARNING: aliasing errors must be expected set NGZ to  54 to avoid them
 aliasing errors are usually negligible using standard VASP settings
 and one can safely disregard these warnings

 parallel 3D FFT for wavefunctions:
    minimum data exchange during FFTs selected (reduces bandwidth)
 parallel 3D FFT for charge:
    minimum data exchange during FFTs selected (reduces bandwidth)

 initial charge density was supplied:
 number of electron      76.0000055 magnetization       0.0000000
 keeping initial charge density in first step

 Maximum index for augmentation-charges         1040 (set IRDMAX)

 First call to EWALD:  gamma=   0.343
 Maximum number of real-space cells 2x 5x 5
 Maximum number of reciprocal cells 4x 4x 4

 FEWALD executed in parallel

----------------------------------------- Iteration    1(   1)  ---------------------------------------

 BZINTS: Fermi energy: 20.091684; 76.000000 electrons
         Band energy: 650.098702;  BLOECHL correction: -0.191834

 eigenvalue-minimisations  : 54168
 total energy-change (2. order) : 0.9579324E+03  (-0.3525423E+04)
 number of electron      76.0000055 magnetization       0.0000000
 augmentation part       76.0000055 magnetization       0.0000000

 Free energy of the ion-electron system (eV)
  alpha Z        PSCENC =       276.94297269
  Ewald energy   TEWEN  =     -3236.46195491
  -1/2 Hartree   DENC   =     -2101.86793928
  -exchange  EXHF       =         0.00000000
  -V(xc)+E(xc)   XCENC  =       192.07772771
  PAW double counting   =      6558.43701424    -6491.86459848
  entropy T*S    EENTRO =         0.00000000
  eigenvalues    EBANDS =       650.09870244
  atomic energy  EATOM  =      5110.57042958
  free energy    TOTEN  =       957.93235398 eV

  energy without entropy =      957.93235398  energy(sigma->0) =      957.93235398

[...]

 BZINTS: Fermi energy:  5.266812; 76.000000 electrons
         Band energy:-214.562700;  BLOECHL correction: -0.122336

 eigenvalue-minimisations  : 59368
 total energy-change (2. order) :-0.8646614E+03  (-0.8152564E+03)
 number of electron      76.0000055 magnetization       0.0000000
 augmentation part       76.0000055 magnetization       0.0000000

[...]

----------------------------------------- Iteration    1(   8)  ---------------------------------------

[...]

 eigenvalue-minimisations  : 57744
 total energy-change (2. order) :-0.2991730E-04  (-0.2990749E-04)
 number of electron      76.0000055 magnetization       0.0000000
 augmentation part       76.0000055 magnetization       0.0000000

 Free energy of the ion-electron system (eV)
  alpha Z        PSCENC =       276.94297269
  Ewald energy   TEWEN  =     -3236.46195491
  -1/2 Hartree   DENC   =     -2101.86793928
  -exchange  EXHF       =         0.00000000
  -V(xc)+E(xc)   XCENC  =       192.07772771
  PAW double counting   =      6558.43701424    -6491.86459848
  entropy T*S    EENTRO =         0.00000000
  eigenvalues    EBANDS =      -397.30029507
  atomic energy  EATOM  =      5110.57042958
  free energy    TOTEN  =       -89.46664353 eV

  energy without entropy =      -89.46664353  energy(sigma->0) =      -89.46664353

 average (electrostatic) potential at core
  the test charge radii are     0.7215  1.0210
  (the norm of the test charge is              1.0000)
       1 -73.4330       2 -73.4330       3 -73.3562       4 -73.3562       5 -73.2333
       6 -73.2333       7 -73.1430       8 -73.1430       9 -49.1933      10 -49.1933
      11 -49.1379      12 -49.1379

 E-fermi :   1.0069     XC(G=0): -10.3807     alpha+bet : -9.2817

 spin component 1

 k-point   1 :       0.0000    0.0000    0.0000
  band No.  band energies     occupation
      1     -17.8393      1.00000
      2     -17.1780      1.00000
      3     -16.5625      1.00000
      4     -16.4891      1.00000
      5     -15.9506      1.00000
      6     -15.8125      1.00000
      7     -15.7583      1.00000
      8     -15.7437      1.00000
      9      -5.7471      1.00000
     10      -5.6700      1.00000
     11      -4.8041      1.00000
     12      -4.5198      1.00000
     13      -4.2644      1.00000
     14      -4.1672      1.00000
     15      -4.1520      1.00000
     16      -4.0940      1.00000
     17      -3.6914      1.00000
     18      -3.2784      1.00000
     19      -3.2089      1.00000
     20      -2.9414      1.00000
     21      -2.7535      1.00000
     22      -2.4864      1.00000
     23      -2.2708      1.00000
     24      -2.0353      1.00000
     25      -1.8079      1.00000
     26      -1.4468      1.00000
     27      -1.0486      1.00000
     28      -0.9686      1.00000
     29      -0.7465      1.00000
     30      -0.7404      1.00000
     31      -0.4423      1.00000
     32      -0.3106      1.00000
     33       0.1430      1.00000
     34       0.2390      1.00000
     35       0.2980      1.00000
     36       0.4167      1.00000
     37       0.5088      1.00000
     38       0.6991      1.00000
     39       2.7920      0.00000
     40       3.2155      0.00000
     41       3.3048      0.00000
     42       3.7092      0.00000
     43       3.7274      0.00000
     44       4.0807      0.00000
     45       4.2902      0.00000
     46       4.5916      0.00000
     47       4.9040      0.00000
     48       5.0303      0.00000

[...]

 spin component 2

[...]

 k-point 282 :       0.5000    0.5000    0.5000
  band No.  band energies     occupation
      1     -17.5279      1.00000
      2     -17.4604      1.00000
      3     -16.9961      1.00000
      4     -16.1445      1.00000
      5     -15.8676      1.00000
      6     -15.8018      1.00000
      7     -15.7735      1.00000
      8     -15.7432      1.00000
      9      -5.9602      1.00000
     10      -5.5583      1.00000
     11      -4.8343      1.00000
     12      -4.7198      1.00000
     13      -4.2134      1.00000
     14      -4.1995      1.00000
     15      -4.0758      1.00000
     16      -3.8870      1.00000
     17      -3.6022      1.00000
     18      -3.5409      1.00000
     19      -3.4082      1.00000
     20      -2.6303      1.00000
     21      -2.5984      1.00000
     22      -2.2983      1.00000
     23      -2.1323      1.00000
     24      -1.9944      1.00000
     25      -1.8938      1.00000
     26      -1.3821      1.00000
     27      -1.3114      1.00000
     28      -1.0768      1.00000
     29      -0.9128      1.00000
     30      -0.5356      1.00000
     31      -0.2885      1.00000
     32      -0.2172      1.00000
     33      -0.0891      1.00000
     34       0.0271      1.00000
     35       0.3169      1.00000
     36       0.3993      1.00000
     37       0.5179      1.00000
     38       0.7881      1.00000
     39       2.6466      0.00000
     40       3.2127      0.00000
     41       3.3152      0.00000
     42       3.6994      0.00000
     43       3.8685      0.00000
     44       4.0534      0.00000
     45       4.2456      0.00000
     46       4.6357      0.00000
     47       4.8709      0.00000
     48       5.1304      0.00000

 soft charge-density along one line, spin component           1
         0         1         2         3         4         5         6         7         8         9
 total charge-density along one line

 soft charge-density along one line, spin component           2
         0         1         2         3         4         5         6         7         8         9
 total charge-density along one line

------------------------ aborting loop because EDIFF is reached ----------------------------------------

 total charge

# of ion     s       p       d       tot
  1        1.581   3.386   0.000   4.968
  2        1.581   3.386   0.000   4.968
  3        1.581   3.387   0.000   4.968
  4        1.581   3.387   0.000   4.968
  5        1.561   3.457   0.000   5.018
  6        1.561   3.457   0.000   5.018
  7        1.562   3.456   0.000   5.018
  8        1.562   3.456   0.000   5.018
  9        0.365   0.579   4.827   5.771
 10        0.365   0.579   4.827   5.771
 11        0.364   0.579   4.828   5.771
 12        0.364   0.579   4.828   5.771
tot       14.027  29.690  19.311  63.028

 magnetization (x)

[...]

 only isotrope contributions calculated
  for stress because ISIF=1 (only pressure is correct)

  FORCE on cell =-STRESS in cart. coord.  units (eV):
  Direction    XX          YY          ZZ          XY          YZ          ZX
  Alpha Z   276.94297   276.94297   276.94297
  Ewald   -1615.50121 -1635.83100    14.86309    11.52657     0.00000     0.00000
  Hartree   323.94384   303.23205  1474.75217     8.94635     0.00000     0.00000
  E(xc)    -369.72621  -369.75687  -370.31912     0.00761    -0.00011    -0.00010
  Local     144.19463   185.15792 -2601.45156   -20.25739    -0.00044    -0.00046
  n-local  -258.02648  -258.02648  -258.02648     0.00000     0.00000     0.00000
  augment   174.89668   174.89668   174.89668     0.00000     0.00000     0.00000
  Kinetic  1324.18443  1324.13456  1286.18858    -0.24149     0.22683    -0.07223
  Fock        0.00000     0.00000     0.00000     0.00000     0.00000     0.00000
  Total       0.90866     0.74984    -2.15366    -0.01836    -0.00000     0.00000
  in kB      10.59429     8.74261   -25.11016    -0.21410    -0.00000     0.00000

 VOLUME and BASIS-vectors are now :
  energy-cutoff  :      520.00
  volume of cell :      137.42
      direct lattice vectors                 reciprocal lattice vectors
    -4.899361902 -4.902438859  1.438238339    -0.102054614 -0.101989546  0.000000000
    -4.872290406  4.875398874 -1.438238339    -0.102337622  0.000283338 -0.347647526
     4.872290406 -4.875398874 -1.438238339     0.000283008 -0.102272884 -0.347647526

  length of vectors
     7.078572125  7.041111950  7.041111950     0.144281016  0.362397394  0.362379118

 FORCES acting on ions
    electron-ion (+dipol)            ewald-force                    non-local-force                 convergence-correction
   0.204E+03 0.267E+03 -.289E-05   -.221E+03 -.287E+03 -.398E-11   0.168E+02 0.199E+02 0.839E-16   0.186E-02 -.225E-01 -.494E-04
   -.204E+03 -.267E+03 0.289E-05   0.221E+03 0.287E+03 0.397E-11   -.168E+02 -.199E+02 -.175E-15   -.186E-02 0.225E-01 0.494E-04
   -.266E+03 0.210E+03 -.114E-04   0.286E+03 -.227E+03 0.383E-11   -.201E+02 0.166E+02 0.344E-16   0.170E-01 -.137E-01 0.309E-04
   0.266E+03 -.210E+03 0.114E-04   -.286E+03 0.227E+03 -.383E-11   0.201E+02 -.166E+02 -.394E-16   -.170E-01 0.137E-01 -.309E-04
   -.121E+03 -.412E+02 0.268E-04   0.123E+03 0.456E+02 -.427E-11   -.184E+01 -.439E+01 -.884E-17   0.271E-01 0.381E-02 -.184E-02
   0.121E+03 0.412E+02 -.268E-04   -.123E+03 -.456E+02 0.426E-11   0.184E+01 0.439E+01 0.134E-16   -.271E-01 -.381E-02 0.184E-02
   0.423E+02 -.128E+03 -.209E-04   -.464E+02 0.132E+03 -.333E-13   0.416E+01 -.455E+01 -.278E-16   0.121E-01 0.134E-01 0.578E-06
   -.423E+02 0.128E+03 0.209E-04   0.464E+02 -.132E+03 0.373E-13   -.416E+01 0.455E+01 -.214E-18   -.121E-01 -.134E-01 -.578E-06
   0.524E+01 -.292E+02 0.133E-05   -.460E+01 0.287E+02 -.626E-11   -.600E+00 0.495E+00 -.141E-17   -.257E-01 0.138E-01 -.304E-03
   -.524E+01 0.292E+02 -.133E-05   0.460E+01 -.287E+02 0.628E-11   0.600E+00 -.495E+00 -.852E-18   0.257E-01 -.138E-01 0.304E-03
   0.353E+02 -.777E+00 -.223E-05   -.347E+02 0.118E+01 0.184E-11   -.528E+00 -.340E+00 -.193E-17   -.169E-01 -.520E-02 0.818E-04
   -.353E+02 0.777E+00 0.223E-05   0.347E+02 -.118E+01 -.182E-11   0.528E+00 0.340E+00 -.291E-17   0.169E-01 0.520E-02 -.818E-04
   -.725E-12 -.268E-11 0.189E-11   0.568E-13 -.642E-13 0.158E-13   0.344E-14 0.361E-14 -.127E-15   -.246E-10 0.234E-10 -.204E-11

 POSITION                                       TOTAL-FORCE (eV/Angst)
     -3.37064     -2.89740     -1.43824        -0.000106      0.008721     -0.000000
     -1.52873     -2.00504      0.00000         0.000106     -0.008721      0.000000
      2.89015     -3.36079     -1.43824        -0.010967     -0.019057      0.000000
     -7.78951     -1.54164      0.00000         0.010967      0.019057      0.000000
     -3.30601     -0.41533     -1.43824        -0.038235      0.038491     -0.000000
     -1.59335     -4.48711     -0.00000         0.038235     -0.038491      0.000000
      0.40756     -3.25869     -1.43824        -0.004930      0.019984     -0.000000
     -5.30692     -1.64375     -0.00000         0.004930     -0.019984     -0.000000
     -1.49147     -3.26715     -1.43824         0.021321      0.022094      0.000000
     -3.40790     -1.63529     -0.00000        -0.021321     -0.022094      0.000000
     -1.65339     -6.38015      0.00000         0.014053      0.060362     -0.000000
     -3.24598      1.47772     -1.43824        -0.014053     -0.060362      0.000000
    total drift:                               -0.000000      0.000000     -0.000000

  FREE ENERGIE OF THE ION-ELECTRON SYSTEM (eV)
  free  energy   TOTEN  =       -89.46664353 eV

  energy  without entropy=      -89.46664353  energy(sigma->0) =      -89.46664353

 total charge

[...]

 magnetization (x)

# of ion     s       p       d       tot
  1       -0.000   0.031   0.000   0.031
  2        0.000  -0.031   0.000  -0.031
  3        0.001  -0.037   0.000  -0.036
  4       -0.001   0.037   0.000   0.036
  5        0.000   0.003   0.000   0.003
  6       -0.000  -0.003   0.000  -0.003
  7       -0.001  -0.020   0.000  -0.022
  8        0.001   0.020   0.000   0.022
  9        0.017   0.027   3.013   3.057
 10       -0.017  -0.027  -3.013  -3.057
 11       -0.017  -0.027  -3.023  -3.068
 12        0.017   0.027   3.023   3.068
tot        0.000  -0.000   0.000  -0.000

 BZINTS: Fermi energy:  1.006878; 76.000000 electrons
         Band energy:-397.300295;  BLOECHL correction:  0.000000